       N       E                     dE             d eps       ncg     rms          rms(c)
DAV:   1     0.187880222588E+05    0.18788E+05   -0.26254E+06 10008   0.108E+03
DAV:   2    -0.882246959864E+04   -0.27610E+05   -0.26239E+05 11852   0.177E+02
DAV:   3    -0.109613102178E+05   -0.21388E+04   -0.21028E+04 12032   0.435E+01
DAV:   4    -0.110225063553E+05   -0.61196E+02   -0.60642E+02 11840   0.879E+00
DAV:   5    -0.110248853305E+05   -0.23790E+01   -0.23720E+01 12104   0.158E+00
   1 F= -.11024885E+05 E0= -.11024885E+05  d E =-.706909E-13
