       N       E                     dE             d eps       ncg     rms          rms(c)
DAV:   1    -0.693902857163E+03   -0.69390E+03   -0.15103E-10  1092   0.104E-05    0.444E-06
DAV:   2    -0.693902857162E+03    0.34265E-09   -0.73225E-11  1076   0.574E-06    0.628E-06
DAV:   3    -0.693902857163E+03   -0.26102E-09   -0.38477E-11  1068   0.351E-06    0.131E-05
DAV:   4    -0.693902857162E+03    0.46884E-09   -0.19309E-11  1068   0.218E-06    0.447E-06
DAV:   5    -0.693902857162E+03    0.94133E-10   -0.11186E-11  1068   0.144E-06    0.991E-07
DAV:   6    -0.693902857162E+03    0.14393E-09   -0.73937E-12  1068   0.923E-07    0.829E-07
DAV:   7    -0.693902857162E+03    0.28876E-10   -0.49516E-12  1068   0.638E-07    0.180E-07
DAV:   8    -0.693902857162E+03    0.14074E-09    0.22168E-13  1068   0.423E-07    0.285E-07
DAV:   9    -0.693902857162E+03   -0.99931E-10   -0.17519E-12  1068   0.300E-07    0.149E-08
DAV:  10    -0.693902857162E+03    0.14222E-09   -0.18673E-12  1060   0.199E-07    0.120E-08
DAV:  11    -0.693902857162E+03    0.35129E-10    0.29767E-12  1044   0.147E-07    0.150E-08
DAV:  12    -0.693902857162E+03   -0.76056E-10   -0.62411E-13  1044   0.994E-08    0.591E-08
DAV:  13    -0.693902857162E+03    0.12176E-09    0.36794E-12  1042   0.753E-08    0.336E-08
DAV:  14    -0.693902857162E+03   -0.29559E-10    0.10446E-12  1041   0.513E-08    0.364E-08
DAV:  15    -0.693902857162E+03   -0.34674E-10    0.92848E-13  1041   0.392E-08    0.401E-08
DAV:  16    -0.693902857162E+03   -0.11255E-09   -0.73241E-13  1041   0.279E-08    0.317E-08
DAV:  17    -0.693902857162E+03    0.10948E-09   -0.71895E-13  1041   0.222E-08    0.459E-08
DAV:  18    -0.693902857162E+03   -0.26716E-10   -0.97872E-13  1041   0.149E-08    0.466E-08
DAV:  19    -0.693902857162E+03    0.93223E-11    0.89685E-14  1041   0.117E-08    0.432E-08
DAV:  20    -0.693902857162E+03   -0.67985E-10    0.15035E-12  1041   0.830E-09
   1 F= -.69390286E+03 E0= -.69390286E+03  d E =-.117884E-11
