       N       E                     dE             d eps       ncg     rms          rms(c)
DAV:   1    -0.292167793071E+03   -0.29217E+03   -0.86146E-11   528   0.183E-05    0.500E-06
DAV:   2    -0.292167793071E+03    0.28592E-10   -0.31513E-11   528   0.996E-06    0.544E-06
DAV:   3    -0.292167793071E+03   -0.14046E-09   -0.11712E-11   528   0.590E-06    0.226E-05
DAV:   4    -0.292167793071E+03    0.15001E-09   -0.40922E-12   528   0.346E-06    0.287E-06
DAV:   5    -0.292167793071E+03    0.78160E-10   -0.27689E-12   512   0.214E-06    0.561E-07
DAV:   6    -0.292167793071E+03   -0.24556E-10   -0.28431E-12   496   0.122E-06    0.757E-07
DAV:   7    -0.292167793071E+03    0.24272E-10   -0.33971E-12   480   0.806E-07    0.962E-07
DAV:   8    -0.292167793071E+03    0.49852E-10   -0.23032E-12   480   0.505E-07    0.258E-07
DAV:   9    -0.292167793071E+03    0.40473E-10   -0.52424E-12   448   0.340E-07    0.700E-07
DAV:  10    -0.292167793071E+03    0.38597E-10   -0.27494E-12   448   0.199E-07    0.108E-06
DAV:  11    -0.292167793071E+03   -0.38369E-10   -0.22318E-12   448   0.178E-07    0.714E-07
DAV:  12    -0.292167793071E+03   -0.34049E-10    0.21858E-14   456   0.162E-07    0.156E-07
DAV:  13    -0.292167793071E+03   -0.87539E-11   -0.65371E-13   440   0.735E-08    0.123E-08
DAV:  14    -0.292167793071E+03    0.92655E-11   -0.11637E-13   456   0.423E-08    0.357E-08
DAV:  15    -0.292167793071E+03   -0.11369E-11   -0.24653E-12   448   0.304E-08    0.406E-08
DAV:  16    -0.292167793071E+03   -0.10232E-11   -0.36438E-12   456   0.200E-08    0.420E-08
DAV:  17    -0.292167793071E+03    0.31605E-10   -0.35491E-12   456   0.157E-08    0.456E-08
DAV:  18    -0.292167793071E+03   -0.50022E-11   -0.12157E-12   456   0.140E-08    0.144E-08
DAV:  19    -0.292167793071E+03   -0.19099E-10   -0.19927E-12   448   0.997E-09    0.273E-09
DAV:  20    -0.292167793071E+03   -0.15575E-10   -0.18210E-12   432   0.614E-09
   1 F= -.29216779E+03 E0= -.29216779E+03  d E =-.388260E-12
