 vasp.6.5.1 10Mar25 (build Apr  9 2026 21:39:28) complex                         
 executed on              LinuxNV date 2026.04.16  13:17:25
 running    1 mpi-ranks, with    1 threads/rank, on    1 nodes
 distrk:  each k-point on    1 cores,    1 groups
 distr:  one band on NCORE=   1 cores,    1 groups
 Offloading initialized ...    1 GPUs detected


--------------------------------------------------------------------------------------------------------


 INCAR:
   SYSTEM = Si_scaling
   ENCUT = 400
   EDIFF = 1E-6
   ISMEAR = 0
   SIGMA = 0.05
   IBRION = -1
   NSW = 0
   NELM = 20
   NELMIN = 20
   LREAL = Auto
   KPAR = 1

 POTCAR:    PAW_PBE Si 05Jan2001                  
 POTCAR:    PAW_PBE Si 05Jan2001                  
   SHA256 =  79d9987ad8750f624c4d6acb2a16d13abf6a777132adc04dc6c8399be72b42bb Si/POTCAR             
   COPYR  = (c) Copyright 05Jan2001 Georg Kresse                                                    
   COPYR  = This file is part of the software VASP. Any use, copying, and all other rights are regul
   COPYR  = If you do not have a valid VASP license, you may not use, copy or distribute this file. 
   VRHFIN =Si: s2p2                                                                                 
   LEXCH  = PE                                                                                      
   EATOM  =   103.0669 eV,    7.5752 Ry                                                             
                                                                                                    
   TITEL  = PAW_PBE Si 05Jan2001                                                                    
   LULTRA =        F    use ultrasoft PP ?                                                          
   IUNSCR =        1    unscreen: 0-lin 1-nonlin 2-no                                               
   RPACOR =    1.500    partial core radius                                                         
   POMASS =   28.085; ZVAL   =    4.000    mass and valenz                                          
   RCORE  =    1.900    outmost cutoff radius                                                       
   RWIGS  =    2.480; RWIGS  =    1.312    wigner-seitz radius (au A)                               
   ENMAX  =  245.345; ENMIN  =  184.009 eV                                                          
   ICORE  =        2    local potential                                                             
   LCOR   =        T    correct aug charges                                                         
   LPAW   =        T    paw PP                                                                      
   EAUG   =  322.069                                                                                
   DEXC   =    0.000                                                                                
   RMAX   =    1.950    core radius for proj-oper                                                   
   RAUG   =    1.300    factor for augmentation sphere                                              
   RDEP   =    1.993    radius for radial grids                                                     
   RDEPT  =    1.837    core radius for aug-charge                                                  
                                                                                                    
   Atomic configuration                                                                             
    6 entries                                                                                       
     n  l   j            E        occ.                                                              
     1  0  0.50     -1785.8828   2.0000                                                             
     2  0  0.50      -139.4969   2.0000                                                             
     2  1  1.50       -95.5546   6.0000                                                             
     3  0  0.50       -10.8127   2.0000                                                             
     3  1  0.50        -4.0811   2.0000                                                             
     3  2  1.50        -4.0817   0.0000                                                             
   Description                                                                                      
     l       E           TYP  RCUT    TYP  RCUT                                                     
     0    -10.8127223     23  1.900                                                                 
     0     -7.6451159     23  1.900                                                                 
     1     -4.0811372     23  1.900                                                                 
     1      2.4879257     23  1.900                                                                 
     2     -4.0817478      7  1.900                                                                 
  local pseudopotential read in
  partial core-charges read in
  partial kinetic energy density read in
  atomic valenz-charges read in
  non local Contribution for L=            0  read in
    real space projection operators read in
  non local Contribution for L=            0  read in
    real space projection operators read in
  non local Contribution for L=            1  read in
    real space projection operators read in
  non local Contribution for L=            1  read in
    real space projection operators read in
    PAW grid and wavefunctions read in
 
   number of l-projection  operators is LMAX  =            4
   number of lm-projection operators is LMMAX =            8
 
 Optimization of the real space projectors (new method)

 maximal supplied QI-value         = 19.84
 optimisation between [QCUT,QGAM] = [ 10.12, 20.44] = [ 28.68,116.96] Ry 
 Optimized for a Real-space Cutoff    1.23 Angstroem

   l    n(q)    QCUT    max X(q) W(low)/X(q) W(high)/X(q)  e(spline) 
   0      7    10.119   159.560    0.56E-04    0.22E-03    0.45E-07
   0      7    10.119   115.863    0.56E-04    0.21E-03    0.45E-07
   1      7    10.119    88.339    0.34E-03    0.49E-03    0.11E-06
   1      7    10.119    48.592    0.33E-03    0.48E-03    0.11E-06
  PAW_PBE Si 05Jan2001                  :
 energy of atom  1       EATOM= -103.0669
 kinetic energy error for atom=    0.0012 (will be added to EATOM!!)
 
 
 POSCAR: Si 3x3x3 primitive supercell (54 atoms)
  positions in direct lattice
  velocities in cartesian coordinates
  No initial velocities read in


 exchange-correlation table for PE
   RHO(1)=    0.500       N(1)  =     2000
   RHO(2)=  100.500       N(2)  =     4000
 


--------------------------------------------------------------------------------------------------------


 ion  position               nearest neighbor table
   1  0.000  0.000  0.000-   2 2.35   6 2.35  14 2.35  38 2.35
   2  0.083  0.083  0.083-   1 2.35   3 2.35   7 2.35  19 2.35
   3  0.000  0.000  0.333-   2 2.35  16 2.35   4 2.35  40 2.35
   4  0.083  0.083  0.417-   5 2.35   9 2.35   3 2.35  21 2.35
   5  0.000  0.000  0.667-   6 2.35   4 2.35  18 2.35  42 2.35
   6  0.083  0.083  0.750-   5 2.35   1 2.35  11 2.35  23 2.35
   7  0.000  0.333  0.000-   2 2.35   8 2.35  12 2.35  44 2.35
   8  0.083  0.417  0.083-   7 2.35   9 2.35  13 2.35  25 2.35
   9  0.000  0.333  0.333-   4 2.35   8 2.35  46 2.35  10 2.35
  10  0.083  0.417  0.417-  11 2.35  15 2.35  27 2.35   9 2.35
  11  0.000  0.333  0.667-   6 2.35  10 2.35  12 2.35  48 2.35
  12  0.083  0.417  0.750-   7 2.35  11 2.35  17 2.35  29 2.35
  13  0.000  0.667  0.000-  14 2.35   8 2.35  18 2.35  50 2.35
  14  0.083  0.750  0.083-  13 2.35   1 2.35  15 2.35  31 2.35
  15  0.000  0.667  0.333-  10 2.35  14 2.35  16 2.35  52 2.35
  16  0.083  0.750  0.417-   3 2.35  17 2.35  15 2.35  33 2.35
  17  0.000  0.667  0.667-  18 2.35  16 2.35  12 2.35  54 2.35
  18  0.083  0.750  0.750-  17 2.35  13 2.35   5 2.35  35 2.35
  19  0.333  0.000  0.000-   2 2.35  20 2.35  24 2.35  32 2.35
  20  0.417  0.083  0.083-  19 2.35  21 2.35  25 2.35  37 2.35
  21  0.333  0.000  0.333-  20 2.35   4 2.35  34 2.35  22 2.35
  22  0.417  0.083  0.417-  23 2.35  39 2.35  27 2.35  21 2.35
  23  0.333  0.000  0.667-   6 2.35  22 2.35  24 2.35  36 2.35
  24  0.417  0.083  0.750-  19 2.35  23 2.35  29 2.35  41 2.35
  25  0.333  0.333  0.000-   8 2.35  20 2.35  30 2.35  26 2.35
  26  0.417  0.417  0.083-  31 2.35  43 2.35  27 2.35  25 2.35
  27  0.333  0.333  0.333-  10 2.35  22 2.35  26 2.35  28 2.35
  28  0.417  0.417  0.417-  29 2.35  33 2.35  45 2.35  27 2.35
  29  0.333  0.333  0.667-  12 2.35  24 2.35  28 2.35  30 2.35
  30  0.417  0.417  0.750-  35 2.35  47 2.35  25 2.35  29 2.35
  31  0.333  0.667  0.000-  14 2.35  26 2.35  32 2.35  36 2.35
  32  0.417  0.750  0.083-  19 2.35  31 2.35  33 2.35  49 2.35
  33  0.333  0.667  0.333-  32 2.35  16 2.35  28 2.35  34 2.35
  34  0.417  0.750  0.417-  35 2.35  51 2.35  21 2.35  33 2.35
  35  0.333  0.667  0.667-  18 2.35  30 2.35  34 2.35  36 2.35
  36  0.417  0.750  0.750-  23 2.35  31 2.35  35 2.35  53 2.35
  37  0.667  0.000  0.000-  38 2.35  20 2.35  42 2.35  50 2.35
  38  0.750  0.083  0.083-  37 2.35   1 2.35  39 2.35  43 2.35
  39  0.667  0.000  0.333-  38 2.35  52 2.35  40 2.35  22 2.35
  40  0.750  0.083  0.417-  41 2.35  45 2.35   3 2.35  39 2.35
  41  0.667  0.000  0.667-  42 2.35  40 2.35  24 2.35  54 2.35
  42  0.750  0.083  0.750-  41 2.35  37 2.35   5 2.35  47 2.35
  43  0.667  0.333  0.000-  26 2.35  38 2.35  44 2.35  48 2.35
  44  0.750  0.417  0.083-   7 2.35  43 2.35  45 2.35  49 2.35
  45  0.667  0.333  0.333-  40 2.35  44 2.35  28 2.35  46 2.35
  46  0.750  0.417  0.417-  47 2.35  51 2.35   9 2.35  45 2.35
  47  0.667  0.333  0.667-  30 2.35  42 2.35  46 2.35  48 2.35
  48  0.750  0.417  0.750-  11 2.35  43 2.35  47 2.35  53 2.35
  49  0.667  0.667  0.000-  50 2.35  44 2.35  32 2.35  54 2.35
  50  0.750  0.750  0.083-  49 2.35  37 2.35  13 2.35  51 2.35
  51  0.667  0.667  0.333-  46 2.35  50 2.35  34 2.35  52 2.35
  52  0.750  0.750  0.417-  39 2.35  53 2.35  51 2.35  15 2.35
  53  0.667  0.667  0.667-  54 2.35  48 2.35  52 2.35  36 2.35
  54  0.750  0.750  0.750-  53 2.35  41 2.35  49 2.35  17 2.35
 
  LATTYP: Found a face centered cubic cell.
 ALAT       =    16.2900000000
  
  Lattice vectors:
  
 A1 = (   8.1450000000,   8.1450000000,   0.0000000000)
 A2 = (   0.0000000000,   8.1450000000,   8.1450000000)
 A3 = (   8.1450000000,   0.0000000000,   8.1450000000)


Analysis of symmetry for initial positions (statically):
=====================================================================
 Subroutine PRICEL returns following result:
 
  LATTYP: Found a face centered cubic cell.
 ALAT       =     5.4299945700
  
  Lattice vectors:
  
 A1 = (   2.7149972850,   2.7149972850,   0.0000000000)
 A2 = (   0.0000000000,   2.7149972850,   2.7149972850)
 A3 = (   2.7149972850,   0.0000000000,   2.7149972850)
 
  27 primitive cells build up your supercell.
 

 Routine SETGRP: Setting up the symmetry group for a 
 face centered cubic supercell.


 Subroutine GETGRP returns: Found 48 space group operations
 (whereof 24 operations were pure point group operations)
 out of a pool of 48 trial point group operations.


The static configuration has the point symmetry T_d .
 The point group associated with its full space group is O_h .


Analysis of symmetry for dynamics (positions and initial velocities):
=====================================================================
 Subroutine PRICEL returns following result:
 
  LATTYP: Found a face centered cubic cell.
 ALAT       =     5.4299945700
  
  Lattice vectors:
  
 A1 = (   2.7149972850,   2.7149972850,   0.0000000000)
 A2 = (   0.0000000000,   2.7149972850,   2.7149972850)
 A3 = (   2.7149972850,   0.0000000000,   2.7149972850)
 
  27 primitive cells build up your supercell.
 

 Routine SETGRP: Setting up the symmetry group for a 
 face centered cubic supercell.


 Subroutine GETGRP returns: Found 48 space group operations
 (whereof 24 operations were pure point group operations)
 out of a pool of 48 trial point group operations.


The dynamic configuration has the point symmetry T_d .
 The point group associated with its full space group is O_h .


 Subroutine INISYM returns: Found 48 space group operations
 (whereof 24 operations are pure point group operations),
 and found    27 'primitive' translations


----------------------------------------------------------------------------------------

                                     Primitive cell                                     

  volume of cell :      40.0256

  direct lattice vectors                    reciprocal lattice vectors
     2.714997285  2.714997285  0.000000000     0.184162247  0.184162247 -0.184162247
     0.000000000  2.714997285  2.714997285    -0.184162247  0.184162247  0.184162247
     2.714997285  0.000000000  2.714997285     0.184162247 -0.184162247  0.184162247

  length of vectors
     3.839585982  3.839585982  3.839585982     0.318978368  0.318978368  0.318978368

  position of ions in fractional coordinates (direct lattice)
     0.000000000  0.000000000  0.000000000
     0.249999250  0.249999250  0.249999250

  ion indices of the primitive-cell ions
   primitive index   ion index
                 1           1
                 2           2

----------------------------------------------------------------------------------------

 
 
 KPOINTS: Automatic k-point mesh                  

Automatic generation of k-mesh.
 Grid dimensions read from file:
 generate k-points for:    2    2    2

 Generating k-lattice:

  Cartesian coordinates                     Fractional coordinates (reciprocal lattice)
     0.030693677  0.030693677 -0.030693677     0.500000000  0.000000000  0.000000000
    -0.030693677  0.030693677  0.030693677    -0.000000000  0.500000000 -0.000000000
     0.030693677 -0.030693677  0.030693677     0.000000000 -0.000000000  0.500000000

  Length of vectors
     0.053163008  0.053163008  0.053163008

  Shift w.r.t. Gamma in fractional coordinates (k-lattice)
     0.000000000  0.000000000  0.000000000

 
 Subroutine IBZKPT returns following result:
 ===========================================
 
 Found      3 irreducible k-points:
 
 Following reciprocal coordinates:
            Coordinates               Weight
  0.000000  0.000000  0.000000      1.000000
  0.500000  0.000000  0.000000      4.000000
  0.500000  0.500000  0.000000      3.000000
 
 Following cartesian coordinates:
            Coordinates               Weight
  0.000000  0.000000  0.000000      1.000000
  0.166667  0.166667 -0.166667      4.000000
  0.000000  0.333333  0.000000      3.000000
 


--------------------------------------------------------------------------------------------------------




 Dimension of arrays:
   k-points           NKPTS =      3   k-points in BZ     NKDIM =      3   number of bands    NBANDS=    136
   number of dos      NEDOS =    301   number of ions     NIONS =     54
   non local maximal  LDIM  =      4   non local SUM 2l+1 LMDIM =      8
   total plane-waves  NPLWV = 175616
   max r-space proj   IRMAX =   1306   max aug-charges    IRDMAX=   5632
   dimension x,y,z NGX =    56 NGY =   56 NGZ =   56
   dimension x,y,z NGXF=   112 NGYF=  112 NGZF=  112
   support grid    NGXF=   112 NGYF=  112 NGZF=  112
   ions per type =              54
   NGX,Y,Z   is equivalent  to a cutoff of   8.08,  8.08,  8.08 a.u.
   NGXF,Y,Z  is equivalent  to a cutoff of  16.16, 16.16, 16.16 a.u.

 SYSTEM =  Si_scaling                              
 POSCAR =  Si 3x3x3 primitive supercell (54 atoms) 

 Startparameter for this run:
   NWRITE =      2    write-flag & timer
   PREC   = normal    normal or accurate (medium, high low for compatibility)
   ISTART =      1    job   : 0-new  1-cont  2-samecut
   ICHARG =      0    charge: 1-file 2-atom 10-const
   ISPIN  =      1    spin polarized calculation?
   LNONCOLLINEAR =      F non collinear calculations
   LSORBIT =      F    spin-orbit coupling
   INIWAV =      1    electr: 0-lowe 1-rand  2-diag
   LASPH  =      F    aspherical Exc in radial PAW
 Electronic Relaxation 1
   ENCUT  =  400.0 eV  29.40 Ry    5.42 a.u.  18.78 18.78 18.78*2*pi/ulx,y,z
   ENINI  =  400.0     initial cutoff
   ENAUG  =  322.1 eV  augmentation charge cutoff
   NELM   =     20;   NELMIN= 20; NELMDL=  0     # of ELM steps 
   EDIFF  = 0.1E-05   stopping-criterion for ELM
   LREAL  =      T    real-space projection
   NLSPLINE    = F    spline interpolate recip. space projectors
   LCOMPAT=      F    compatible to vasp.4.4
   GGA_COMPAT  = T    GGA compatible to vasp.4.4-vasp.4.6
   LMAXPAW     = -100 max onsite density
   LMAXMIX     =    2 max onsite mixed and CHGCAR
   VOSKOWN=      0    Vosko Wilk Nusair interpolation
   ROPT   =   -0.00050
 Ionic relaxation
   EDIFFG = 0.1E-04   stopping-criterion for IOM
   NSW    =      0    number of steps for IOM
   NBLOCK =      1;   KBLOCK =      1    inner block; outer block 
   IBRION =     -1    ionic relax: 0-MD 1-quasi-New 2-CG
   NFREE  =      0    steps in history (QN), initial steepest desc. (CG)
   ISIF   =      2    stress and relaxation
   IWAVPR =     10    prediction:  0-non 1-charg 2-wave 3-comb
   ISYM   =      2    0-nonsym 1-usesym 2-fastsym
   LCORR  =      T    Harris-Foulkes like correction to forces

   POTIM  = 0.5000    time-step for ionic-motion
   TEIN   =    0.0    initial temperature
   TEBEG  =    0.0;   TEEND  =   0.0 temperature during run
   SMASS  =  -3.00    Nose mass-parameter (am)
   estimated Nose-frequenzy (Omega)   =  0.10E-29 period in steps = 0.13E+47 mass=  -0.303E-26a.u.
   SCALEE = 1.0000    scale energy and forces
   NPACO  =    256;   APACO  = 10.0  distance and # of slots for P.C.
   PSTRESS=    0.0 pullay stress

  Mass of Ions in am
   POMASS =  28.09
  Ionic Valenz
   ZVAL   =   4.00
  Atomic Wigner-Seitz radii
   RWIGS  =  -1.00
  virtual crystal weights 
   VCA    =   1.00
   NELECT =     216.0000    total number of electrons
   NUPDOWN=      -1.0000    fix difference up-down

 DOS related values:
   EMIN   =  10.00;   EMAX   =-10.00  energy-range for DOS
   EFERMI =   0.00;   METHOD = LEGACY      
   ISMEAR =     0;   SIGMA  =   0.05  broadening in eV -4-tet -1-fermi 0-gaus
   EFERMI_NEDOS =   21; number of points for ismear=-14 and -15

 Electronic relaxation 2 (details)
   IALGO  =     38    algorithm
   LDIAG  =      T    sub-space diagonalisation (order eigenvalues)
   LSUBROT=      F    optimize rotation matrix (better conditioning)
   LROBUST=      F    robust break criterion during scf (extrapolated energy error)
   ISEARCH=      0    line search for conjugate gradient (0, 1=use gradient)
   TURBO    =      0    0=normal 1=particle mesh
   IRESTART =      0    0=no restart 2=restart with 2 vectors
   NREBOOT  =      0    no. of reboots
   NMIN     =      0    reboot dimension
   EREF     =   0.00    reference energy to select bands
   IMIX   =      4    mixing-type and parameters
     AMIX     =   0.40;   BMIX     =  1.00
     AMIX_MAG =   1.60;   BMIX_MAG =  1.00
     AMIN     =   0.10
     WC   =   100.;   INIMIX=   1;  MIXPRE=   1;  MAXMIX= -45

 Intra band minimization:
   WEIMIN = 0.0000     energy-eigenvalue tresh-hold
   EBREAK =  0.18E-08  absolut break condition
   DEPER  =   0.30     relativ break condition  

   TIME   =   0.40     timestep for ELM

  volume/ion in A,a.u.               =      20.01       135.05
  Fermi-wavevector in a.u.,A,eV,Ry     =   0.957176  1.808800 12.465458  0.916185
  Thomas-Fermi vector in A             =   2.086170
 
 Write flags
   LWAVE        =      T    write WAVECAR
   LDOWNSAMPLE  =      F    k-point downsampling of WAVECAR
   LCHARG       =      T    write CHGCAR
   LVTOT        =      F    write LOCPOT, total local potential
   LVHAR        =      F    write LOCPOT, Hartree potential only
   WRT_POTENTIAL= false  ! write potential to hdf5 file
   LELF         =      F    write electronic localiz. function (ELF)
   LORBIT       =      0    0 simple, 1 ext, 2 COOP (PROOUT), +10 PAW based schemes


 Python interface
   PLUGINS active      =      F    recompile with -DPLUGINS to activate
 
 Dipole corrections
   LMONO      =      F    monopole corrections only (constant potential shift)
   LDIPOL     =      F    correct potential (dipole corrections)
   IDIPOL     =      0    1-x, 2-y, 3-z, 4-all directions 
   EPSILON    =  1.0000000 bulk dielectric constant
   LVACPOTAV  =      F  vacuum potentials using an averaging scheme for the charge density
   VACPOTFLAT =  0.1000000 required flatness to determine vacuum potential
 
Coulomb truncation method
  LTRUNCATE          =      F  Coulomb kernel truncation to be used

 
 Exchange correlation treatment:
   GGA     = PE    functional components
   XC_C    = 1    coefficients multiplying the functional components
   LIBXC   =     F    Libxc                    
   VOSKOWN =     0    Vosko Wilk Nusair interpolation
   LHFCALC =     F    Hartree Fock is set to
   LHFONE  =     F    Hartree Fock one center treatment
   AEXX    =    0.0000 exact exchange contribution

 Parameters of functionals:
   PE:
     No parameter
 
 Van der Waals corrections
   IVDW    =     0    specifies the selected vdW correction

 Linear response parameters
   LEPSILON=     F    determine dielectric tensor
   LRPA    =     F    only Hartree local field effects (RPA)
   LNABLA  =     F    use nabla operator in PAW spheres
   LVEL    =     F    velocity operator in full k-point grid
   CSHIFT  =0.1000    complex shift for real part using Kramers Kronig
   OMEGAMAX=  -1.0    maximum frequency
   DEG_THRESHOLD= 0.2000000E-02 threshold for treating states as degnerate
   RTIME   =   -0.100 relaxation time in fs
  (WPLASMAI=    0.000 imaginary part of plasma frequency in eV, 0.658/RTIME)
   DFIELD  = 0.0000000 0.0000000 0.0000000 field for delta impulse in time
 
  Optional k-point grid parameters
   LKPOINTS_OPT  =     F    use optional k-point grid
   KPOINTS_OPT_MODE=     1    mode for optional k-point grid
 
 Orbital magnetization related:
   ORBITALMAG=     F  switch on orbital magnetization
   LCHIMAG   =     F  perturbation theory with respect to B field
   DQ        =  0.001000  dq finite difference perturbation B field
   LLRAUG    =     F  two centre corrections for induced B field
   LBONE     =     F  B-component reconstruction in AE one-centre
   LVGVCALC  =     T  calculate vGv susceptibility
   LVGVAPPL  =     F  apply vGv susceptibility instead of pGv for G=0

 Random number generation:
   RANDOM_GENERATOR = DEFAULT
   PCG_SEED         = not used


--------------------------------------------------------------------------------------------------------


 Static calculation
 charge density and potential will be updated during run
 non-spin polarized calculation
 Variant of blocked Davidson
 Davidson routine will perform the subspace rotation
 perform sub-space diagonalisation
    after iterative eigenvector-optimisation
 modified Broyden-mixing scheme, WC =      100.0
 initial mixing is a Kerker type mixing with AMIX =  0.4000 and BMIX =      1.0000
 Hartree-type preconditioning will be used
 using additional bands            28
 real space projection scheme for non local part
 use partial core corrections
 calculate Harris-corrections to forces 
   (improved forces if not selfconsistent)
 use gradient corrections 
 use of overlap-Matrix (Vanderbilt PP)
 Gauss-broadening in eV      SIGMA  =   0.05


--------------------------------------------------------------------------------------------------------


  energy-cutoff  :      400.00
  volume of cell :     1080.70
      direct lattice vectors                 reciprocal lattice vectors
     8.145000000  8.145000000  0.000000000     0.061387354  0.061387354 -0.061387354
     0.000000000  8.145000000  8.145000000    -0.061387354  0.061387354  0.061387354
     8.145000000  0.000000000  8.145000000     0.061387354 -0.061387354  0.061387354

  length of vectors
    11.518769466 11.518769466 11.518769466     0.106326016  0.106326016  0.106326016


 
 old parameters found on file WAVECAR:
  energy-cutoff  :      400.00
  volume of cell :     1080.70
      direct lattice vectors                 reciprocal lattice vectors
     8.145000000  8.145000000  0.000000000     0.061387354  0.061387354 -0.061387354
     0.000000000  8.145000000  8.145000000    -0.061387354  0.061387354  0.061387354
     8.145000000  0.000000000  8.145000000     0.061387354 -0.061387354  0.061387354

  length of vectors

 
 k-points in units of 2pi/SCALE and weight: Automatic k-point mesh                  
   0.00000000  0.00000000  0.00000000       0.125
   0.16666667  0.16666667 -0.16666667       0.500
   0.00000000  0.33333333  0.00000000       0.375
 
 k-points in reciprocal lattice and weights: Automatic k-point mesh                  
   0.00000000  0.00000000  0.00000000       0.125
   0.50000000  0.00000000  0.00000000       0.500
   0.50000000  0.50000000  0.00000000       0.375
 
 position of ions in fractional coordinates (direct lattice) 
   0.00000000  0.00000000  0.00000000
   0.08333300  0.08333300  0.08333300
   0.00000000  0.00000000  0.33333300
   0.08333300  0.08333300  0.41666700
   0.00000000  0.00000000  0.66666700
   0.08333300  0.08333300  0.75000000
   0.00000000  0.33333300  0.00000000
   0.08333300  0.41666700  0.08333300
   0.00000000  0.33333300  0.33333300
   0.08333300  0.41666700  0.41666700
   0.00000000  0.33333300  0.66666700
   0.08333300  0.41666700  0.75000000
   0.00000000  0.66666700  0.00000000
   0.08333300  0.75000000  0.08333300
   0.00000000  0.66666700  0.33333300
   0.08333300  0.75000000  0.41666700
   0.00000000  0.66666700  0.66666700
   0.08333300  0.75000000  0.75000000
   0.33333300  0.00000000  0.00000000
   0.41666700  0.08333300  0.08333300
   0.33333300  0.00000000  0.33333300
   0.41666700  0.08333300  0.41666700
   0.33333300  0.00000000  0.66666700
   0.41666700  0.08333300  0.75000000
   0.33333300  0.33333300  0.00000000
   0.41666700  0.41666700  0.08333300
   0.33333300  0.33333300  0.33333300
   0.41666700  0.41666700  0.41666700
   0.33333300  0.33333300  0.66666700
   0.41666700  0.41666700  0.75000000
   0.33333300  0.66666700  0.00000000
   0.41666700  0.75000000  0.08333300
   0.33333300  0.66666700  0.33333300
   0.41666700  0.75000000  0.41666700
   0.33333300  0.66666700  0.66666700
   0.41666700  0.75000000  0.75000000
   0.66666700  0.00000000  0.00000000
   0.75000000  0.08333300  0.08333300
   0.66666700  0.00000000  0.33333300
   0.75000000  0.08333300  0.41666700
   0.66666700  0.00000000  0.66666700
   0.75000000  0.08333300  0.75000000
   0.66666700  0.33333300  0.00000000
   0.75000000  0.41666700  0.08333300
   0.66666700  0.33333300  0.33333300
   0.75000000  0.41666700  0.41666700
   0.66666700  0.33333300  0.66666700
   0.75000000  0.41666700  0.75000000
   0.66666700  0.66666700  0.00000000
   0.75000000  0.75000000  0.08333300
   0.66666700  0.66666700  0.33333300
   0.75000000  0.75000000  0.41666700
   0.66666700  0.66666700  0.66666700
   0.75000000  0.75000000  0.75000000
 
 position of ions in cartesian coordinates  (Angst):
   0.00000000  0.00000000  0.00000000
   1.35749457  1.35749457  1.35749457
   2.71499729  0.00000000  2.71499729
   4.07250000  1.35749457  4.07250000
   5.43000271  0.00000000  5.43000271
   6.78749729  1.35749457  6.78749729
   0.00000000  2.71499729  2.71499729
   1.35749457  4.07250000  4.07250000
   2.71499729  2.71499729  5.42999457
   4.07250000  4.07250000  6.78750543
   5.43000271  2.71499729  8.14500000
   6.78749729  4.07250000  9.50250271
   0.00000000  5.43000271  5.43000271
   1.35749457  6.78749729  6.78749729
   2.71499729  5.43000271  8.14500000
   4.07250000  6.78749729  9.50250271
   5.43000271  5.43000271 10.86000543
   6.78749729  6.78749729 12.21750000
   2.71499729  2.71499729  0.00000000
   4.07250000  4.07250000  1.35749457
   5.42999457  2.71499729  2.71499729
   6.78750543  4.07250000  4.07250000
   8.14500000  2.71499729  5.43000271
   9.50250271  4.07250000  6.78749729
   2.71499729  5.42999457  2.71499729
   4.07250000  6.78750543  4.07250000
   5.42999457  5.42999457  5.42999457
   6.78750543  6.78750543  6.78750543
   8.14500000  5.42999457  8.14500000
   9.50250271  6.78750543  9.50250271
   2.71499729  8.14500000  5.43000271
   4.07250000  9.50250271  6.78749729
   5.42999457  8.14500000  8.14500000
   6.78750543  9.50250271  9.50250271
   8.14500000  8.14500000 10.86000543
   9.50250271  9.50250271 12.21750000
   5.43000271  5.43000271  0.00000000
   6.78749729  6.78749729  1.35749457
   8.14500000  5.43000271  2.71499729
   9.50250271  6.78749729  4.07250000
  10.86000543  5.43000271  5.43000271
  12.21750000  6.78749729  6.78749729
   5.43000271  8.14500000  2.71499729
   6.78749729  9.50250271  4.07250000
   8.14500000  8.14500000  5.42999457
   9.50250271  9.50250271  6.78750543
  10.86000543  8.14500000  8.14500000
  12.21750000  9.50250271  9.50250271
   5.43000271 10.86000543  5.43000271
   6.78749729 12.21750000  6.78749729
   8.14500000 10.86000543  8.14500000
   9.50250271 12.21750000  9.50250271
  10.86000543 10.86000543 10.86000543
  12.21750000 12.21750000 12.21750000
 


--------------------------------------------------------------------------------------------------------


 k-point     1 :   0.0000 0.0000 0.0000  plane waves:   19603
 k-point     2 :   0.5000 0.0000 0.0000  plane waves:   19650
 k-point     3 :   0.5000 0.5000 0.0000  plane waves:   19638

 maximum and minimum number of plane-waves per node :     19650    19603

 maximum number of plane-waves:     19650
 maximum index in each direction: 
   IXMAX=   18   IYMAX=   18   IZMAX=   18
   IXMIN=  -19   IYMIN=  -19   IZMIN=  -18


 serial   3D FFT for wavefunctions
 parallel 3D FFT for charge:
    minimum data exchange during FFTs selected (reduces bandwidth)


 total amount of memory used by VASP MPI-rank0   291061. kBytes
=======================================================================

   base                                    :      30000. kBytes
   nonlr-proj                              :       5819. kBytes
   fftplans                                :      48668. kBytes
   grid                                    :      75314. kBytes
   one-center                              :        165. kBytes
   wavefun                                 :     131095. kBytes
 
     INWAV:  cpu time      0.0488: real time      0.0505
 Broyden mixing: mesh for mixing (old mesh)
   NGX = 37   NGY = 37   NGZ = 37
  (NGX  =112   NGY  =112   NGZ  =112)
  gives a total of  50653 points

 charge density for first step will be calculated from the start-wavefunctions


--------------------------------------------------------------------------------------------------------


 Maximum index for non-local projection operator          1236
 Maximum index for augmentation-charges          5281 (set IRDMAX)


--------------------------------------------------------------------------------------------------------


 initial charge from wavefunction
 First call to EWALD:  gamma=   0.173
 Maximum number of real-space cells   3x   3x   3
 Maximum number of reciprocal cells   3x   3x   3

    FEWALD:  cpu time      0.1196: real time      0.1200


--------------------------------------- Ionic step        1  -------------------------------------------




--------------------------------------- Iteration      1(   1)  ---------------------------------------


    POTLOK:  cpu time      0.0231: real time      0.0238
    SETDIJ:  cpu time      0.0366: real time      0.0367
     EDDAV:  cpu time      0.4589: real time      0.4698
       DOS:  cpu time      0.0003: real time      0.0003
    CHARGE:  cpu time      0.1097: real time      0.1100
    MIXING:  cpu time      0.0191: real time      0.0192
    --------------------------------------------
      LOOP:  cpu time      0.6477: real time      0.6598

 eigenvalue-minimisations  :   528
 total energy-change (2. order) :-0.2921678E+03  (-0.8614595E-11)
 number of electron     215.9999999 magnetization 
 augmentation part      -12.3609788 magnetization 

 Broyden mixing:
  rms(total) = 0.49954E-06    rms(broyden)= 0.49954E-06
  rms(prec ) = 0.50006E-06
  weight for this iteration     100.00

 Free energy of the ion-electron system (eV)
  ---------------------------------------------------
  alpha Z        PSCENC =        90.83197610
  Ewald energy   TEWEN  =     -6171.21613755
  -Hartree energ DENC   =      -404.41516036
  -exchange      EXHF   =         0.00000000
  -V(xc)+E(xc)   XCENC  =      -484.75664180
  PAW double counting   =     23540.36954312   -22596.43118258
  entropy T*S    EENTRO =        -0.00000000
  eigenvalues    EBANDS =       167.89951365
  atomic energy  EATOM  =      5565.55029633
  Solvation  Ediel_sol  =         0.00000000
  ---------------------------------------------------
  free energy    TOTEN  =      -292.16779307 eV

  energy without entropy =     -292.16779307  energy(sigma->0) =     -292.16779307


--------------------------------------------------------------------------------------------------------




--------------------------------------- Iteration      1(   2)  ---------------------------------------


    POTLOK:  cpu time      0.0084: real time      0.0089
    SETDIJ:  cpu time      0.0367: real time      0.0368
     EDDAV:  cpu time      0.2704: real time      0.2713
       DOS:  cpu time      0.0003: real time      0.0003
    CHARGE:  cpu time      0.1044: real time      0.1047
    MIXING:  cpu time      0.0210: real time      0.0211
    --------------------------------------------
      LOOP:  cpu time      0.4412: real time      0.4431

 eigenvalue-minimisations  :   528
 total energy-change (2. order) : 0.2859224E-10  (-0.3151278E-11)
 number of electron     215.9999999 magnetization 
 augmentation part      -12.3609789 magnetization 

 Broyden mixing:
  rms(total) = 0.54389E-06    rms(broyden)= 0.54389E-06
  rms(prec ) = 0.54419E-06
  weight for this iteration     100.00

 eigenvalues of (default mixing * dielectric matrix)
  average eigenvalue GAMMA=   8.5010
  8.5010

 Free energy of the ion-electron system (eV)
  ---------------------------------------------------
  alpha Z        PSCENC =        90.83197610
  Ewald energy   TEWEN  =     -6171.21613755
  -Hartree energ DENC   =      -404.41516039
  -exchange      EXHF   =         0.00000000
  -V(xc)+E(xc)   XCENC  =      -484.75664188
  PAW double counting   =     23540.36818349   -22596.42982297
  entropy T*S    EENTRO =        -0.00000000
  eigenvalues    EBANDS =       167.89951379
  atomic energy  EATOM  =      5565.55029633
  Solvation  Ediel_sol  =         0.00000000
  ---------------------------------------------------
  free energy    TOTEN  =      -292.16779307 eV

  energy without entropy =     -292.16779307  energy(sigma->0) =     -292.16779307


--------------------------------------------------------------------------------------------------------




--------------------------------------- Iteration      1(   3)  ---------------------------------------


    POTLOK:  cpu time      0.0066: real time      0.0067
    SETDIJ:  cpu time      0.0365: real time      0.0366
     EDDAV:  cpu time      0.2722: real time      0.2732
       DOS:  cpu time      0.0003: real time      0.0003
    CHARGE:  cpu time      0.1046: real time      0.1049
    MIXING:  cpu time      0.0223: real time      0.0224
    --------------------------------------------
      LOOP:  cpu time      0.4425: real time      0.4441

 eigenvalue-minimisations  :   528
 total energy-change (2. order) :-0.1404601E-09  (-0.1171244E-11)
 number of electron     215.9999999 magnetization 
 augmentation part      -12.3609789 magnetization 

 Broyden mixing:
  rms(total) = 0.22634E-05    rms(broyden)= 0.22634E-05
  rms(prec ) = 0.22646E-05
  weight for this iteration     100.00

 eigenvalues of (default mixing * dielectric matrix)
  average eigenvalue GAMMA=   1.5955
  1.0496  2.1413

 Free energy of the ion-electron system (eV)
  ---------------------------------------------------
  alpha Z        PSCENC =        90.83197610
  Ewald energy   TEWEN  =     -6171.21613755
  -Hartree energ DENC   =      -404.41515632
  -exchange      EXHF   =         0.00000000
  -V(xc)+E(xc)   XCENC  =      -484.75664171
  PAW double counting   =     23540.37848489   -22596.44012408
  entropy T*S    EENTRO =        -0.00000000
  eigenvalues    EBANDS =       167.89950926
  atomic energy  EATOM  =      5565.55029633
  Solvation  Ediel_sol  =         0.00000000
  ---------------------------------------------------
  free energy    TOTEN  =      -292.16779307 eV

  energy without entropy =     -292.16779307  energy(sigma->0) =     -292.16779307


--------------------------------------------------------------------------------------------------------




--------------------------------------- Iteration      1(   4)  ---------------------------------------


    POTLOK:  cpu time      0.0064: real time      0.0065
    SETDIJ:  cpu time      0.0367: real time      0.0368
     EDDAV:  cpu time      0.2647: real time      0.2656
       DOS:  cpu time      0.0003: real time      0.0003
    CHARGE:  cpu time      0.1012: real time      0.1015
    MIXING:  cpu time      0.0197: real time      0.0198
    --------------------------------------------
      LOOP:  cpu time      0.4290: real time      0.4305

 eigenvalue-minimisations  :   528
 total energy-change (2. order) : 0.1500098E-09  (-0.4092213E-12)
 number of electron     215.9999999 magnetization 
 augmentation part      -12.3609789 magnetization 

 Broyden mixing:
  rms(total) = 0.28656E-06    rms(broyden)= 0.28656E-06
  rms(prec ) = 0.28664E-06
  weight for this iteration     100.00

 eigenvalues of (default mixing * dielectric matrix)
  average eigenvalue GAMMA=   1.0617
  2.0921  1.0515  0.0416

 Free energy of the ion-electron system (eV)
  ---------------------------------------------------
  alpha Z        PSCENC =        90.83197610
  Ewald energy   TEWEN  =     -6171.21613755
  -Hartree energ DENC   =      -404.41516165
  -exchange      EXHF   =         0.00000000
  -V(xc)+E(xc)   XCENC  =      -484.75664194
  PAW double counting   =     23540.36501569   -22596.42665525
  entropy T*S    EENTRO =        -0.00000000
  eigenvalues    EBANDS =       167.89951520
  atomic energy  EATOM  =      5565.55029633
  Solvation  Ediel_sol  =         0.00000000
  ---------------------------------------------------
  free energy    TOTEN  =      -292.16779307 eV

  energy without entropy =     -292.16779307  energy(sigma->0) =     -292.16779307


--------------------------------------------------------------------------------------------------------




--------------------------------------- Iteration      1(   5)  ---------------------------------------


    POTLOK:  cpu time      0.0080: real time      0.0081
    SETDIJ:  cpu time      0.0365: real time      0.0366
     EDDAV:  cpu time      0.2688: real time      0.2699
       DOS:  cpu time      0.0003: real time      0.0003
    CHARGE:  cpu time      0.1070: real time      0.1074
    MIXING:  cpu time      0.0214: real time      0.0215
    --------------------------------------------
      LOOP:  cpu time      0.4420: real time      0.4437

 eigenvalue-minimisations  :   512
 total energy-change (2. order) : 0.7815970E-10  (-0.2768896E-12)
 number of electron     215.9999999 magnetization 
 augmentation part      -12.3609789 magnetization 

 Broyden mixing:
  rms(total) = 0.56093E-07    rms(broyden)= 0.56093E-07
  rms(prec ) = 0.56159E-07
  weight for this iteration     100.00

 eigenvalues of (default mixing * dielectric matrix)
  average eigenvalue GAMMA=   1.2125
  2.2584  1.1775  1.0116  0.4027

 Free energy of the ion-electron system (eV)
  ---------------------------------------------------
  alpha Z        PSCENC =        90.83197610
  Ewald energy   TEWEN  =     -6171.21613755
  -Hartree energ DENC   =      -404.41516217
  -exchange      EXHF   =         0.00000000
  -V(xc)+E(xc)   XCENC  =      -484.75664199
  PAW double counting   =     23540.36320402   -22596.42484361
  entropy T*S    EENTRO =        -0.00000000
  eigenvalues    EBANDS =       167.89951579
  atomic energy  EATOM  =      5565.55029633
  Solvation  Ediel_sol  =         0.00000000
  ---------------------------------------------------
  free energy    TOTEN  =      -292.16779307 eV

  energy without entropy =     -292.16779307  energy(sigma->0) =     -292.16779307


--------------------------------------------------------------------------------------------------------




--------------------------------------- Iteration      1(   6)  ---------------------------------------


    POTLOK:  cpu time      0.0072: real time      0.0073
    SETDIJ:  cpu time      0.0366: real time      0.0367
     EDDAV:  cpu time      0.2647: real time      0.2685
       DOS:  cpu time      0.0003: real time      0.0003
    CHARGE:  cpu time      0.1049: real time      0.1053
    MIXING:  cpu time      0.0214: real time      0.0215
    --------------------------------------------
      LOOP:  cpu time      0.4350: real time      0.4396

 eigenvalue-minimisations  :   496
 total energy-change (2. order) :-0.2455636E-10  (-0.2843142E-12)
 number of electron     215.9999999 magnetization 
 augmentation part      -12.3609789 magnetization 

 Broyden mixing:
  rms(total) = 0.75727E-07    rms(broyden)= 0.75727E-07
  rms(prec ) = 0.75769E-07
  weight for this iteration     100.00

 eigenvalues of (default mixing * dielectric matrix)
  average eigenvalue GAMMA=   0.9715
  2.5493  0.8045  0.9502  0.3452  0.2085

 Free energy of the ion-electron system (eV)
  ---------------------------------------------------
  alpha Z        PSCENC =        90.83197610
  Ewald energy   TEWEN  =     -6171.21613755
  -Hartree energ DENC   =      -404.41516217
  -exchange      EXHF   =         0.00000000
  -V(xc)+E(xc)   XCENC  =      -484.75664199
  PAW double counting   =     23540.36319379   -22596.42483338
  entropy T*S    EENTRO =        -0.00000000
  eigenvalues    EBANDS =       167.89951579
  atomic energy  EATOM  =      5565.55029633
  Solvation  Ediel_sol  =         0.00000000
  ---------------------------------------------------
  free energy    TOTEN  =      -292.16779307 eV

  energy without entropy =     -292.16779307  energy(sigma->0) =     -292.16779307


--------------------------------------------------------------------------------------------------------




--------------------------------------- Iteration      1(   7)  ---------------------------------------


    POTLOK:  cpu time      0.0068: real time      0.0069
    SETDIJ:  cpu time      0.0365: real time      0.0366
     EDDAV:  cpu time      0.2580: real time      0.2588
       DOS:  cpu time      0.0003: real time      0.0003
    CHARGE:  cpu time      0.1073: real time      0.1077
    MIXING:  cpu time      0.0234: real time      0.0234
    --------------------------------------------
      LOOP:  cpu time      0.4322: real time      0.4336

 eigenvalue-minimisations  :   480
 total energy-change (2. order) : 0.2427214E-10  (-0.3397144E-12)
 number of electron     215.9999999 magnetization 
 augmentation part      -12.3609789 magnetization 

 Broyden mixing:
  rms(total) = 0.96178E-07    rms(broyden)= 0.96178E-07
  rms(prec ) = 0.96222E-07
  weight for this iteration     100.00

 eigenvalues of (default mixing * dielectric matrix)
  average eigenvalue GAMMA=   1.3400
  2.3373  2.4907  0.8623  0.8623  0.9724  0.5154

 Free energy of the ion-electron system (eV)
  ---------------------------------------------------
  alpha Z        PSCENC =        90.83197610
  Ewald energy   TEWEN  =     -6171.21613755
  -Hartree energ DENC   =      -404.41516216
  -exchange      EXHF   =         0.00000000
  -V(xc)+E(xc)   XCENC  =      -484.75664200
  PAW double counting   =     23540.36319262   -22596.42483221
  entropy T*S    EENTRO =        -0.00000000
  eigenvalues    EBANDS =       167.89951579
  atomic energy  EATOM  =      5565.55029633
  Solvation  Ediel_sol  =         0.00000000
  ---------------------------------------------------
  free energy    TOTEN  =      -292.16779307 eV

  energy without entropy =     -292.16779307  energy(sigma->0) =     -292.16779307


--------------------------------------------------------------------------------------------------------




--------------------------------------- Iteration      1(   8)  ---------------------------------------


    POTLOK:  cpu time      0.0072: real time      0.0073
    SETDIJ:  cpu time      0.0367: real time      0.0368
     EDDAV:  cpu time      0.2551: real time      0.2560
       DOS:  cpu time      0.0003: real time      0.0003
    CHARGE:  cpu time      0.1027: real time      0.1030
    MIXING:  cpu time      0.0228: real time      0.0229
    --------------------------------------------
      LOOP:  cpu time      0.4248: real time      0.4263

 eigenvalue-minimisations  :   480
 total energy-change (2. order) : 0.4985168E-10  (-0.2303158E-12)
 number of electron     215.9999999 magnetization 
 augmentation part      -12.3609789 magnetization 

 Broyden mixing:
  rms(total) = 0.25809E-07    rms(broyden)= 0.25809E-07
  rms(prec ) = 0.26110E-07
  weight for this iteration     100.00

 eigenvalues of (default mixing * dielectric matrix)
  average eigenvalue GAMMA=   1.5634
  2.7705  2.7705  1.3057  1.3057  1.1955  1.0599  0.5357

 Free energy of the ion-electron system (eV)
  ---------------------------------------------------
  alpha Z        PSCENC =        90.83197610
  Ewald energy   TEWEN  =     -6171.21613755
  -Hartree energ DENC   =      -404.41516225
  -exchange      EXHF   =         0.00000000
  -V(xc)+E(xc)   XCENC  =      -484.75664200
  PAW double counting   =     23540.36277904   -22596.42441862
  entropy T*S    EENTRO =        -0.00000000
  eigenvalues    EBANDS =       167.89951588
  atomic energy  EATOM  =      5565.55029633
  Solvation  Ediel_sol  =         0.00000000
  ---------------------------------------------------
  free energy    TOTEN  =      -292.16779307 eV

  energy without entropy =     -292.16779307  energy(sigma->0) =     -292.16779307


--------------------------------------------------------------------------------------------------------




--------------------------------------- Iteration      1(   9)  ---------------------------------------


    POTLOK:  cpu time      0.0069: real time      0.0069
    SETDIJ:  cpu time      0.0365: real time      0.0366
     EDDAV:  cpu time      0.2478: real time      0.2486
       DOS:  cpu time      0.0003: real time      0.0003
    CHARGE:  cpu time      0.1047: real time      0.1050
    MIXING:  cpu time      0.0228: real time      0.0229
    --------------------------------------------
      LOOP:  cpu time      0.4189: real time      0.4203

 eigenvalue-minimisations  :   448
 total energy-change (2. order) : 0.4047251E-10  (-0.5242404E-12)
 number of electron     215.9999999 magnetization 
 augmentation part      -12.3609789 magnetization 

 Broyden mixing:
  rms(total) = 0.70035E-07    rms(broyden)= 0.70035E-07
  rms(prec ) = 0.70393E-07
  weight for this iteration     100.00

 eigenvalues of (default mixing * dielectric matrix)
  average eigenvalue GAMMA=   1.6616
  5.3069  2.2723  1.0745  1.0745  1.1825  0.9223  0.9223  0.5379

 Free energy of the ion-electron system (eV)
  ---------------------------------------------------
  alpha Z        PSCENC =        90.83197610
  Ewald energy   TEWEN  =     -6171.21613755
  -Hartree energ DENC   =      -404.41516241
  -exchange      EXHF   =         0.00000000
  -V(xc)+E(xc)   XCENC  =      -484.75664200
  PAW double counting   =     23540.36220850   -22596.42384808
  entropy T*S    EENTRO =        -0.00000000
  eigenvalues    EBANDS =       167.89951604
  atomic energy  EATOM  =      5565.55029633
  Solvation  Ediel_sol  =         0.00000000
  ---------------------------------------------------
  free energy    TOTEN  =      -292.16779307 eV

  energy without entropy =     -292.16779307  energy(sigma->0) =     -292.16779307


--------------------------------------------------------------------------------------------------------




--------------------------------------- Iteration      1(  10)  ---------------------------------------


    POTLOK:  cpu time      0.0066: real time      0.0067
    SETDIJ:  cpu time      0.0417: real time      0.0418
     EDDAV:  cpu time      0.2446: real time      0.2455
       DOS:  cpu time      0.0003: real time      0.0003
    CHARGE:  cpu time      0.1060: real time      0.1063
    MIXING:  cpu time      0.0260: real time      0.0261
    --------------------------------------------
      LOOP:  cpu time      0.4252: real time      0.4267

 eigenvalue-minimisations  :   448
 total energy-change (2. order) : 0.3859668E-10  (-0.2749398E-12)
 number of electron     215.9999999 magnetization 
 augmentation part      -12.3609789 magnetization 

 Broyden mixing:
  rms(total) = 0.10770E-06    rms(broyden)= 0.10770E-06
  rms(prec ) = 0.10796E-06
  weight for this iteration     100.00

 eigenvalues of (default mixing * dielectric matrix)
  average eigenvalue GAMMA=   1.5290
  3.9004  3.1987  1.0382  1.0382  1.1819  1.1819  0.9389  0.7449  0.5381

 Free energy of the ion-electron system (eV)
  ---------------------------------------------------
  alpha Z        PSCENC =        90.83197610
  Ewald energy   TEWEN  =     -6171.21613755
  -Hartree energ DENC   =      -404.41516245
  -exchange      EXHF   =         0.00000000
  -V(xc)+E(xc)   XCENC  =      -484.75664201
  PAW double counting   =     23540.36197839   -22596.42361798
  entropy T*S    EENTRO =        -0.00000000
  eigenvalues    EBANDS =       167.89951609
  atomic energy  EATOM  =      5565.55029633
  Solvation  Ediel_sol  =         0.00000000
  ---------------------------------------------------
  free energy    TOTEN  =      -292.16779307 eV

  energy without entropy =     -292.16779307  energy(sigma->0) =     -292.16779307


--------------------------------------------------------------------------------------------------------




--------------------------------------- Iteration      1(  11)  ---------------------------------------


    POTLOK:  cpu time      0.0068: real time      0.0068
    SETDIJ:  cpu time      0.0365: real time      0.0366
     EDDAV:  cpu time      0.2457: real time      0.2465
       DOS:  cpu time      0.0003: real time      0.0003
    CHARGE:  cpu time      0.1020: real time      0.1023
    MIXING:  cpu time      0.0235: real time      0.0236
    --------------------------------------------
      LOOP:  cpu time      0.4148: real time      0.4162

 eigenvalue-minimisations  :   448
 total energy-change (2. order) :-0.3836931E-10  (-0.2231756E-12)
 number of electron     215.9999999 magnetization 
 augmentation part      -12.3609789 magnetization 

 Broyden mixing:
  rms(total) = 0.71366E-07    rms(broyden)= 0.71366E-07
  rms(prec ) = 0.71512E-07
  weight for this iteration     100.00

 eigenvalues of (default mixing * dielectric matrix)
  average eigenvalue GAMMA=   1.5772
  4.5346  2.8687  1.0988  1.0988  1.4822  1.4822  0.5384  0.8732  0.8732  0.9216

 Free energy of the ion-electron system (eV)
  ---------------------------------------------------
  alpha Z        PSCENC =        90.83197610
  Ewald energy   TEWEN  =     -6171.21613755
  -Hartree energ DENC   =      -404.41516234
  -exchange      EXHF   =         0.00000000
  -V(xc)+E(xc)   XCENC  =      -484.75664201
  PAW double counting   =     23540.36220924   -22596.42384881
  entropy T*S    EENTRO =        -0.00000000
  eigenvalues    EBANDS =       167.89951596
  atomic energy  EATOM  =      5565.55029633
  Solvation  Ediel_sol  =         0.00000000
  ---------------------------------------------------
  free energy    TOTEN  =      -292.16779307 eV

  energy without entropy =     -292.16779307  energy(sigma->0) =     -292.16779307


--------------------------------------------------------------------------------------------------------




--------------------------------------- Iteration      1(  12)  ---------------------------------------


    POTLOK:  cpu time      0.0082: real time      0.0083
    SETDIJ:  cpu time      0.0364: real time      0.0365
     EDDAV:  cpu time      0.2458: real time      0.2466
       DOS:  cpu time      0.0003: real time      0.0003
    CHARGE:  cpu time      0.1048: real time      0.1051
    MIXING:  cpu time      0.0276: real time      0.0277
    --------------------------------------------
      LOOP:  cpu time      0.4230: real time      0.4244

 eigenvalue-minimisations  :   456
 total energy-change (2. order) :-0.3404921E-10  ( 0.2185752E-14)
 number of electron     215.9999999 magnetization 
 augmentation part      -12.3609789 magnetization 

 Broyden mixing:
  rms(total) = 0.15600E-07    rms(broyden)= 0.15600E-07
  rms(prec ) = 0.15604E-07
  weight for this iteration     100.00

 eigenvalues of (default mixing * dielectric matrix)
  average eigenvalue GAMMA=   1.7178
  3.6652  3.6652  2.4997  2.4997  1.1270  1.1270  0.5386  0.9969  0.9969  1.0252
  0.7542

 Free energy of the ion-electron system (eV)
  ---------------------------------------------------
  alpha Z        PSCENC =        90.83197610
  Ewald energy   TEWEN  =     -6171.21613755
  -Hartree energ DENC   =      -404.41516222
  -exchange      EXHF   =         0.00000000
  -V(xc)+E(xc)   XCENC  =      -484.75664201
  PAW double counting   =     23540.36252905   -22596.42416861
  entropy T*S    EENTRO =        -0.00000000
  eigenvalues    EBANDS =       167.89951584
  atomic energy  EATOM  =      5565.55029633
  Solvation  Ediel_sol  =         0.00000000
  ---------------------------------------------------
  free energy    TOTEN  =      -292.16779307 eV

  energy without entropy =     -292.16779307  energy(sigma->0) =     -292.16779307


--------------------------------------------------------------------------------------------------------




--------------------------------------- Iteration      1(  13)  ---------------------------------------


    POTLOK:  cpu time      0.0072: real time      0.0073
    SETDIJ:  cpu time      0.0365: real time      0.0367
     EDDAV:  cpu time      0.2468: real time      0.2477
       DOS:  cpu time      0.0003: real time      0.0003
    CHARGE:  cpu time      0.1053: real time      0.1056
    MIXING:  cpu time      0.0274: real time      0.0275
    --------------------------------------------
      LOOP:  cpu time      0.4235: real time      0.4251

 eigenvalue-minimisations  :   440
 total energy-change (2. order) :-0.8753887E-11  (-0.6537132E-13)
 number of electron     215.9999999 magnetization 
 augmentation part      -12.3609789 magnetization 

 Broyden mixing:
  rms(total) = 0.12348E-08    rms(broyden)= 0.12348E-08
  rms(prec ) = 0.13025E-08
  weight for this iteration     100.00

 eigenvalues of (default mixing * dielectric matrix)
  average eigenvalue GAMMA=   1.5749
  3.6446  3.6446  2.5006  2.5006  1.1270  1.1270  0.9933  0.9933  1.0263  0.5386
  0.7567  0.0456

 Free energy of the ion-electron system (eV)
  ---------------------------------------------------
  alpha Z        PSCENC =        90.83197610
  Ewald energy   TEWEN  =     -6171.21613755
  -Hartree energ DENC   =      -404.41516221
  -exchange      EXHF   =         0.00000000
  -V(xc)+E(xc)   XCENC  =      -484.75664201
  PAW double counting   =     23540.36261711   -22596.42425668
  entropy T*S    EENTRO =        -0.00000000
  eigenvalues    EBANDS =       167.89951582
  atomic energy  EATOM  =      5565.55029633
  Solvation  Ediel_sol  =         0.00000000
  ---------------------------------------------------
  free energy    TOTEN  =      -292.16779307 eV

  energy without entropy =     -292.16779307  energy(sigma->0) =     -292.16779307


--------------------------------------------------------------------------------------------------------




--------------------------------------- Iteration      1(  14)  ---------------------------------------


    POTLOK:  cpu time      0.0067: real time      0.0068
    SETDIJ:  cpu time      0.0366: real time      0.0366
     EDDAV:  cpu time      0.2487: real time      0.2495
       DOS:  cpu time      0.0003: real time      0.0003
    CHARGE:  cpu time      0.1017: real time      0.1020
    MIXING:  cpu time      0.0279: real time      0.0280
    --------------------------------------------
      LOOP:  cpu time      0.4219: real time      0.4233

 eigenvalue-minimisations  :   456
 total energy-change (2. order) : 0.9265477E-11  (-0.1163653E-13)
 number of electron     215.9999999 magnetization 
 augmentation part      -12.3609789 magnetization 

 Broyden mixing:
  rms(total) = 0.35712E-08    rms(broyden)= 0.35712E-08
  rms(prec ) = 0.35955E-08
  weight for this iteration     100.00

 eigenvalues of (default mixing * dielectric matrix)
  average eigenvalue GAMMA=   1.5403
  3.6480  3.6480  2.5372  2.5372  1.1270  1.1270  0.9862  0.9862  1.0119  0.5386
  0.7446  0.5661  0.5661

 Free energy of the ion-electron system (eV)
  ---------------------------------------------------
  alpha Z        PSCENC =        90.83197610
  Ewald energy   TEWEN  =     -6171.21613755
  -Hartree energ DENC   =      -404.41516221
  -exchange      EXHF   =         0.00000000
  -V(xc)+E(xc)   XCENC  =      -484.75664201
  PAW double counting   =     23540.36262681   -22596.42426637
  entropy T*S    EENTRO =        -0.00000000
  eigenvalues    EBANDS =       167.89951583
  atomic energy  EATOM  =      5565.55029633
  Solvation  Ediel_sol  =         0.00000000
  ---------------------------------------------------
  free energy    TOTEN  =      -292.16779307 eV

  energy without entropy =     -292.16779307  energy(sigma->0) =     -292.16779307


--------------------------------------------------------------------------------------------------------




--------------------------------------- Iteration      1(  15)  ---------------------------------------


    POTLOK:  cpu time      0.0067: real time      0.0068
    SETDIJ:  cpu time      0.0367: real time      0.0368
     EDDAV:  cpu time      0.2473: real time      0.2484
       DOS:  cpu time      0.0003: real time      0.0003
    CHARGE:  cpu time      0.1023: real time      0.1026
    MIXING:  cpu time      0.0298: real time      0.0299
    --------------------------------------------
      LOOP:  cpu time      0.4230: real time      0.4247

 eigenvalue-minimisations  :   448
 total energy-change (2. order) :-0.1136868E-11  (-0.2465320E-12)
 number of electron     215.9999999 magnetization 
 augmentation part      -12.3609789 magnetization 

 Broyden mixing:
  rms(total) = 0.40559E-08    rms(broyden)= 0.40559E-08
  rms(prec ) = 0.40782E-08
  weight for this iteration     100.00

 eigenvalues of (default mixing * dielectric matrix)
  average eigenvalue GAMMA=   1.6406
  4.7468  4.7468  2.3011  2.3011  1.1259  1.1259  1.1054  1.1054  1.0147  0.7932
  0.7932  0.5384  0.6178  0.6523

 Free energy of the ion-electron system (eV)
  ---------------------------------------------------
  alpha Z        PSCENC =        90.83197610
  Ewald energy   TEWEN  =     -6171.21613755
  -Hartree energ DENC   =      -404.41516221
  -exchange      EXHF   =         0.00000000
  -V(xc)+E(xc)   XCENC  =      -484.75664201
  PAW double counting   =     23540.36262814   -22596.42426771
  entropy T*S    EENTRO =        -0.00000000
  eigenvalues    EBANDS =       167.89951583
  atomic energy  EATOM  =      5565.55029633
  Solvation  Ediel_sol  =         0.00000000
  ---------------------------------------------------
  free energy    TOTEN  =      -292.16779307 eV

  energy without entropy =     -292.16779307  energy(sigma->0) =     -292.16779307


--------------------------------------------------------------------------------------------------------




--------------------------------------- Iteration      1(  16)  ---------------------------------------


    POTLOK:  cpu time      0.0074: real time      0.0075
    SETDIJ:  cpu time      0.0365: real time      0.0366
     EDDAV:  cpu time      0.2507: real time      0.2516
       DOS:  cpu time      0.0003: real time      0.0003
    CHARGE:  cpu time      0.1052: real time      0.1055
    MIXING:  cpu time      0.0295: real time      0.0296
    --------------------------------------------
      LOOP:  cpu time      0.4297: real time      0.4311

 eigenvalue-minimisations  :   456
 total energy-change (2. order) :-0.1023182E-11  (-0.3643821E-12)
 number of electron     215.9999999 magnetization 
 augmentation part      -12.3609789 magnetization 

 Broyden mixing:
  rms(total) = 0.41979E-08    rms(broyden)= 0.41979E-08
  rms(prec ) = 0.42189E-08
  weight for this iteration     100.00

 eigenvalues of (default mixing * dielectric matrix)
  average eigenvalue GAMMA=   1.5585
  4.4919  4.4919  2.3514  2.3514  1.1265  1.1265  1.2317  1.1169  1.1169  0.9984
  0.7962  0.7962  0.5385  0.6321  0.2111

 Free energy of the ion-electron system (eV)
  ---------------------------------------------------
  alpha Z        PSCENC =        90.83197610
  Ewald energy   TEWEN  =     -6171.21613755
  -Hartree energ DENC   =      -404.41516221
  -exchange      EXHF   =         0.00000000
  -V(xc)+E(xc)   XCENC  =      -484.75664201
  PAW double counting   =     23540.36262790   -22596.42426746
  entropy T*S    EENTRO =        -0.00000000
  eigenvalues    EBANDS =       167.89951583
  atomic energy  EATOM  =      5565.55029633
  Solvation  Ediel_sol  =         0.00000000
  ---------------------------------------------------
  free energy    TOTEN  =      -292.16779307 eV

  energy without entropy =     -292.16779307  energy(sigma->0) =     -292.16779307


--------------------------------------------------------------------------------------------------------




--------------------------------------- Iteration      1(  17)  ---------------------------------------


    POTLOK:  cpu time      0.0084: real time      0.0085
    SETDIJ:  cpu time      0.0367: real time      0.0367
     EDDAV:  cpu time      0.2490: real time      0.2498
       DOS:  cpu time      0.0003: real time      0.0003
    CHARGE:  cpu time      0.1034: real time      0.1037
    MIXING:  cpu time      0.0284: real time      0.0284
    --------------------------------------------
      LOOP:  cpu time      0.4260: real time      0.4275

 eigenvalue-minimisations  :   456
 total energy-change (2. order) : 0.3160494E-10  (-0.3549105E-12)
 number of electron     215.9999999 magnetization 
 augmentation part      -12.3609789 magnetization 

 Broyden mixing:
  rms(total) = 0.45596E-08    rms(broyden)= 0.45596E-08
  rms(prec ) = 0.46004E-08
  weight for this iteration     100.00

 eigenvalues of (default mixing * dielectric matrix)
  average eigenvalue GAMMA=   1.5941
  4.0526  4.0526  2.0905  2.0905  1.1272  1.1272  2.3917  2.1708  1.1170  1.0123
  1.0123  0.5387  0.7683  0.7511  0.7511  0.4523

 Free energy of the ion-electron system (eV)
  ---------------------------------------------------
  alpha Z        PSCENC =        90.83197610
  Ewald energy   TEWEN  =     -6171.21613755
  -Hartree energ DENC   =      -404.41516220
  -exchange      EXHF   =         0.00000000
  -V(xc)+E(xc)   XCENC  =      -484.75664201
  PAW double counting   =     23540.36262801   -22596.42426758
  entropy T*S    EENTRO =        -0.00000000
  eigenvalues    EBANDS =       167.89951582
  atomic energy  EATOM  =      5565.55029633
  Solvation  Ediel_sol  =         0.00000000
  ---------------------------------------------------
  free energy    TOTEN  =      -292.16779307 eV

  energy without entropy =     -292.16779307  energy(sigma->0) =     -292.16779307


--------------------------------------------------------------------------------------------------------




--------------------------------------- Iteration      1(  18)  ---------------------------------------


    POTLOK:  cpu time      0.0068: real time      0.0069
    SETDIJ:  cpu time      0.0367: real time      0.0368
     EDDAV:  cpu time      0.2462: real time      0.2470
       DOS:  cpu time      0.0003: real time      0.0003
    CHARGE:  cpu time      0.1015: real time      0.1017
    MIXING:  cpu time      0.0307: real time      0.0308
    --------------------------------------------
      LOOP:  cpu time      0.4220: real time      0.4234

 eigenvalue-minimisations  :   456
 total energy-change (2. order) :-0.5002221E-11  (-0.1215694E-12)
 number of electron     215.9999999 magnetization 
 augmentation part      -12.3609789 magnetization 

 Broyden mixing:
  rms(total) = 0.14353E-08    rms(broyden)= 0.14353E-08
  rms(prec ) = 0.14459E-08
  weight for this iteration     100.00

 eigenvalues of (default mixing * dielectric matrix)
  average eigenvalue GAMMA=   1.5396
  3.0091  3.0091  3.2254  2.1016  2.1016  2.3338  1.1271  1.1271  1.2518  1.2518
  1.2101  0.5387  0.8966  0.8966  0.8218  0.8218  0.4486

 Free energy of the ion-electron system (eV)
  ---------------------------------------------------
  alpha Z        PSCENC =        90.83197610
  Ewald energy   TEWEN  =     -6171.21613755
  -Hartree energ DENC   =      -404.41516226
  -exchange      EXHF   =         0.00000000
  -V(xc)+E(xc)   XCENC  =      -484.75664201
  PAW double counting   =     23540.36258923   -22596.42422879
  entropy T*S    EENTRO =        -0.00000000
  eigenvalues    EBANDS =       167.89951588
  atomic energy  EATOM  =      5565.55029633
  Solvation  Ediel_sol  =         0.00000000
  ---------------------------------------------------
  free energy    TOTEN  =      -292.16779307 eV

  energy without entropy =     -292.16779307  energy(sigma->0) =     -292.16779307


--------------------------------------------------------------------------------------------------------




--------------------------------------- Iteration      1(  19)  ---------------------------------------


    POTLOK:  cpu time      0.0069: real time      0.0070
    SETDIJ:  cpu time      0.0368: real time      0.0369
     EDDAV:  cpu time      0.2436: real time      0.2446
       DOS:  cpu time      0.0003: real time      0.0003
    CHARGE:  cpu time      0.1043: real time      0.1046
    MIXING:  cpu time      0.0335: real time      0.0336
    --------------------------------------------
      LOOP:  cpu time      0.4255: real time      0.4270

 eigenvalue-minimisations  :   448
 total energy-change (2. order) :-0.1909939E-10  (-0.1992712E-12)
 number of electron     215.9999999 magnetization 
 augmentation part      -12.3609789 magnetization 

 Broyden mixing:
  rms(total) = 0.27349E-09    rms(broyden)= 0.27349E-09
  rms(prec ) = 0.27546E-09
  weight for this iteration     100.00

 eigenvalues of (default mixing * dielectric matrix)
  average eigenvalue GAMMA=   1.4879
  3.1139  3.1139  3.1109  2.2717  2.2717  2.2256  1.1271  1.1271  1.2292  1.2292
  1.2909  0.5387  0.9023  0.9023  0.8192  0.8192  0.2386  0.4506

 Free energy of the ion-electron system (eV)
  ---------------------------------------------------
  alpha Z        PSCENC =        90.83197610
  Ewald energy   TEWEN  =     -6171.21613755
  -Hartree energ DENC   =      -404.41516225
  -exchange      EXHF   =         0.00000000
  -V(xc)+E(xc)   XCENC  =      -484.75664201
  PAW double counting   =     23540.36259603   -22596.42423560
  entropy T*S    EENTRO =        -0.00000000
  eigenvalues    EBANDS =       167.89951586
  atomic energy  EATOM  =      5565.55029633
  Solvation  Ediel_sol  =         0.00000000
  ---------------------------------------------------
  free energy    TOTEN  =      -292.16779307 eV

  energy without entropy =     -292.16779307  energy(sigma->0) =     -292.16779307


--------------------------------------------------------------------------------------------------------




--------------------------------------- Iteration      1(  20)  ---------------------------------------


    POTLOK:  cpu time      0.0070: real time      0.0071
    SETDIJ:  cpu time      0.0365: real time      0.0367
     EDDAV:  cpu time      0.2470: real time      0.2479
       DOS:  cpu time      0.0003: real time      0.0003
    --------------------------------------------
      LOOP:  cpu time      0.2909: real time      0.2921

 eigenvalue-minimisations  :   432
 total energy-change (2. order) :-0.1557510E-10  (-0.1821043E-12)
 number of electron     215.9999999 magnetization 
 augmentation part      -12.3609789 magnetization 

 Free energy of the ion-electron system (eV)
  ---------------------------------------------------
  alpha Z        PSCENC =        90.83197610
  Ewald energy   TEWEN  =     -6171.21613755
  -Hartree energ DENC   =      -404.41516224
  -exchange      EXHF   =         0.00000000
  -V(xc)+E(xc)   XCENC  =      -484.75664201
  PAW double counting   =     23540.36260150   -22596.42424106
  entropy T*S    EENTRO =        -0.00000000
  eigenvalues    EBANDS =       167.89951586
  atomic energy  EATOM  =      5565.55029633
  Solvation  Ediel_sol  =         0.00000000
  ---------------------------------------------------
  free energy    TOTEN  =      -292.16779307 eV

  energy without entropy =     -292.16779307  energy(sigma->0) =     -292.16779307


--------------------------------------------------------------------------------------------------------




 average (electrostatic) potential at core
  the test charge radii are     0.9892
  (the norm of the test charge is              1.0000)
       1 -83.2312       2 -83.2312       3 -83.2310       4 -83.2310       5 -83.2312
       6 -83.2312       7 -83.2310       8 -83.2310       9 -83.2308      10 -83.2309
      11 -83.2310      12 -83.2311      13 -83.2312      14 -83.2312      15 -83.2310
      16 -83.2311      17 -83.2312      18 -83.2313      19 -83.2310      20 -83.2310
      21 -83.2308      22 -83.2309      23 -83.2310      24 -83.2311      25 -83.2308
      26 -83.2309      27 -83.2306      28 -83.2307      29 -83.2308      30 -83.2309
      31 -83.2310      32 -83.2311      33 -83.2308      34 -83.2309      35 -83.2310
      36 -83.2311      37 -83.2312      38 -83.2312      39 -83.2310      40 -83.2311
      41 -83.2312      42 -83.2313      43 -83.2310      44 -83.2311      45 -83.2308
      46 -83.2309      47 -83.2310      48 -83.2311      49 -83.2312      50 -83.2313
      51 -83.2310      52 -83.2311      53 -83.2311      54 -83.2313
 
 
 
 E-fermi :   6.0832     XC(G=0):  -9.4059     alpha+bet :-11.9845

 val. band max:        5.8380584830   @ k =   0.0000   0.0000   0.0000
 cond. band min:       6.5450256354   @ k =   0.5000   0.5000   0.0000
 fundamental gap:      0.7069671524
 Fermi energy:         6.0831505690

 k-point     1 :       0.0000    0.0000    0.0000
  band No.  band energies     occupation 
      1      -6.1241      2.00000
      2      -4.7465      2.00000
      3      -4.7465      2.00000
      4      -4.7465      2.00000
      5      -4.7465      2.00000
      6      -4.7465      2.00000
      7      -4.7465      2.00000
      8      -4.7464      2.00000
      9      -4.7464      2.00000
     10      -4.2188      2.00000
     11      -4.2188      2.00000
     12      -4.2188      2.00000
     13      -4.2188      2.00000
     14      -4.2187      2.00000
     15      -4.2187      2.00000
     16      -2.8580      2.00000
     17      -2.8579      2.00000
     18      -2.8579      2.00000
     19      -2.8579      2.00000
     20      -2.8579      2.00000
     21      -2.8578      2.00000
     22      -2.8578      2.00000
     23      -2.8578      2.00000
     24      -2.8578      2.00000
     25      -2.8578      2.00000
     26      -2.8578      2.00000
     27      -2.8578      2.00000
     28      -0.9309      2.00000
     29      -0.9308      2.00000
     30      -0.9308      2.00000
     31      -0.9308      2.00000
     32      -0.9308      2.00000
     33      -0.9308      2.00000
     34      -0.9308      2.00000
     35      -0.9308      2.00000
     36      -0.9308      2.00000
     37      -0.9308      2.00000
     38      -0.9308      2.00000
     39      -0.9307      2.00000
     40       0.5045      2.00000
     41       0.5045      2.00000
     42       0.5045      2.00000
     43       0.5045      2.00000
     44       0.5046      2.00000
     45       0.5046      2.00000
     46       0.5046      2.00000
     47       0.5046      2.00000
     48       0.8297      2.00000
     49       0.8297      2.00000
     50       0.8297      2.00000
     51       0.8297      2.00000
     52       0.8297      2.00000
     53       0.8297      2.00000
     54       1.4243      2.00000
     55       1.4243      2.00000
     56       1.4243      2.00000
     57       1.4244      2.00000
     58       1.4244      2.00000
     59       1.4244      2.00000
     60       1.4244      2.00000
     61       1.4245      2.00000
     62       1.4245      2.00000
     63       1.4245      2.00000
     64       1.4245      2.00000
     65       1.4246      2.00000
     66       3.4207      2.00000
     67       3.4207      2.00000
     68       3.4207      2.00000
     69       3.4207      2.00000
     70       3.4207      2.00000
     71       3.4207      2.00000
     72       3.4207      2.00000
     73       3.4207      2.00000
     74       3.4207      2.00000
     75       3.4207      2.00000
     76       3.4207      2.00000
     77       3.4207      2.00000
     78       3.7267      2.00000
     79       3.7267      2.00000
     80       3.7267      2.00000
     81       3.7267      2.00000
     82       3.7267      2.00000
     83       3.7267      2.00000
     84       3.7267      2.00000
     85       3.7267      2.00000
     86       3.7267      2.00000
     87       3.7267      2.00000
     88       3.7267      2.00000
     89       3.7268      2.00000
     90       4.8380      2.00000
     91       4.8380      2.00000
     92       4.8380      2.00000
     93       4.8380      2.00000
     94       4.8381      2.00000
     95       4.8381      2.00000
     96       4.8381      2.00000
     97       4.8381      2.00000
     98       4.8381      2.00000
     99       4.8381      2.00000
    100       4.8381      2.00000
    101       4.8381      2.00000
    102       4.8382      2.00000
    103       4.8382      2.00000
    104       4.8382      2.00000
    105       4.8382      2.00000
    106       5.8381      2.00000
    107       5.8381      2.00000
    108       5.8381      2.00000
    109       6.5633      0.00000
    110       6.5633      0.00000
    111       6.5633      0.00000
    112       6.5634      0.00000
    113       6.5634      0.00000
    114       6.5634      0.00000
    115       7.4033      0.00000
    116       7.4033      0.00000
    117       7.4033      0.00000
    118       7.4033      0.00000
    119       7.4033      0.00000
    120       7.4033      0.00000
    121       7.4033      0.00000
    122       7.4033      0.00000
    123       7.4033      0.00000
    124       7.4033      0.00000
    125       7.4033      0.00000
    126       7.4033      0.00000
    127       7.6044      0.00000
    128       7.6044      0.00000
    129       7.6044      0.00000
    130       7.6045      0.00000
    131       7.6045      0.00000
    132       7.6045      0.00000
    133       7.6046      0.00000
    134       7.6046      0.00000
    135       7.8273      0.00000
    136       7.8273      0.00000

 k-point     2 :       0.5000    0.0000    0.0000
  band No.  band energies     occupation 
      1      -5.7627      2.00000
      2      -5.7626      2.00000
      3      -4.8240      2.00000
      4      -4.8240      2.00000
      5      -4.8239      2.00000
      6      -4.8239      2.00000
      7      -4.8238      2.00000
      8      -4.8238      2.00000
      9      -4.0170      2.00000
     10      -4.0170      2.00000
     11      -4.0170      2.00000
     12      -4.0170      2.00000
     13      -4.0169      2.00000
     14      -4.0169      2.00000
     15      -3.7912      2.00000
     16      -3.0543      2.00000
     17      -3.0542      2.00000
     18      -3.0542      2.00000
     19      -3.0542      2.00000
     20      -3.0542      2.00000
     21      -3.0542      2.00000
     22      -2.8479      2.00000
     23      -2.8479      2.00000
     24      -2.8478      2.00000
     25      -2.8478      2.00000
     26      -2.8478      2.00000
     27      -2.8478      2.00000
     28      -1.1315      2.00000
     29      -1.0040      2.00000
     30      -1.0039      2.00000
     31      -1.0039      2.00000
     32      -1.0039      2.00000
     33      -1.0039      2.00000
     34      -1.0039      2.00000
     35      -0.7255      2.00000
     36      -0.7255      2.00000
     37      -0.7255      2.00000
     38      -0.7255      2.00000
     39      -0.7255      2.00000
     40      -0.7255      2.00000
     41      -0.1673      2.00000
     42      -0.1673      2.00000
     43      -0.1673      2.00000
     44      -0.1673      2.00000
     45      -0.1673      2.00000
     46      -0.1673      2.00000
     47       1.4034      2.00000
     48       1.4034      2.00000
     49       1.4035      2.00000
     50       1.4035      2.00000
     51       1.4035      2.00000
     52       1.4035      2.00000
     53       1.8281      2.00000
     54       1.8281      2.00000
     55       1.8281      2.00000
     56       1.8281      2.00000
     57       1.8282      2.00000
     58       1.8283      2.00000
     59       2.2056      2.00000
     60       2.2056      2.00000
     61       2.2056      2.00000
     62       2.2056      2.00000
     63       2.2056      2.00000
     64       2.2057      2.00000
     65       2.7908      2.00000
     66       2.7908      2.00000
     67       2.7908      2.00000
     68       2.7908      2.00000
     69       2.7909      2.00000
     70       2.7909      2.00000
     71       3.0763      2.00000
     72       3.0763      2.00000
     73       3.0763      2.00000
     74       3.0763      2.00000
     75       3.0763      2.00000
     76       3.0763      2.00000
     77       3.2842      2.00000
     78       3.2843      2.00000
     79       3.2843      2.00000
     80       3.2843      2.00000
     81       3.2844      2.00000
     82       3.2844      2.00000
     83       3.4583      2.00000
     84       3.4584      2.00000
     85       3.8457      2.00000
     86       3.8458      2.00000
     87       3.8458      2.00000
     88       3.8458      2.00000
     89       3.8458      2.00000
     90       3.8459      2.00000
     91       4.0921      2.00000
     92       4.0922      2.00000
     93       4.0922      2.00000
     94       4.0922      2.00000
     95       4.0922      2.00000
     96       4.0922      2.00000
     97       4.5414      2.00000
     98       4.5414      2.00000
     99       4.5414      2.00000
    100       4.5414      2.00000
    101       4.5414      2.00000
    102       4.5414      2.00000
    103       4.6401      2.00000
    104       4.6401      2.00000
    105       5.3878      2.00000
    106       5.3878      2.00000
    107       5.3879      2.00000
    108       5.3879      2.00000
    109       6.8987      0.00000
    110       6.8987      0.00000
    111       6.8988      0.00000
    112       6.8988      0.00000
    113       6.8989      0.00000
    114       6.8989      0.00000
    115       7.3792      0.00000
    116       7.8020      0.00000
    117       7.8020      0.00000
    118       7.8020      0.00000
    119       7.8020      0.00000
    120       7.8020      0.00000
    121       7.8020      0.00000
    122       8.1922      0.00000
    123       8.1923      0.00000
    124       8.2903      0.00000
    125       8.2903      0.00000
    126       8.2903      0.00000
    127       8.2903      0.00000
    128       8.2903      0.00000
    129       8.2903      0.00000
    130       8.5535      0.00000
    131       8.5535      0.00000
    132       8.5535      0.00000
    133       8.5535      0.00000
    134       8.5535      0.00000
    135       8.5535      0.00000
    136       9.0484      0.00000

 k-point     3 :       0.5000    0.5000    0.0000
  band No.  band energies     occupation 
      1      -5.6397      2.00000
      2      -5.6397      2.00000
      3      -5.1741      2.00000
      4      -5.1741      2.00000
      5      -5.1741      2.00000
      6      -5.1741      2.00000
      7      -3.8334      2.00000
      8      -3.8334      2.00000
      9      -3.8334      2.00000
     10      -3.8333      2.00000
     11      -3.8333      2.00000
     12      -3.8333      2.00000
     13      -3.8333      2.00000
     14      -3.8333      2.00000
     15      -3.6318      2.00000
     16      -3.6318      2.00000
     17      -3.6318      2.00000
     18      -3.6317      2.00000
     19      -3.6317      2.00000
     20      -3.6317      2.00000
     21      -3.6317      2.00000
     22      -3.6316      2.00000
     23      -1.9775      2.00000
     24      -1.9775      2.00000
     25      -1.8574      2.00000
     26      -1.8574      2.00000
     27      -1.8574      2.00000
     28      -1.8574      2.00000
     29      -1.8574      2.00000
     30      -1.8574      2.00000
     31      -1.8574      2.00000
     32      -1.8574      2.00000
     33      -0.7669      2.00000
     34      -0.7669      2.00000
     35      -0.7669      2.00000
     36      -0.7669      2.00000
     37      -0.7669      2.00000
     38      -0.7668      2.00000
     39      -0.7668      2.00000
     40      -0.7668      2.00000
     41       0.1962      2.00000
     42       0.1962      2.00000
     43       0.1962      2.00000
     44       0.1963      2.00000
     45       0.1963      2.00000
     46       0.1963      2.00000
     47       0.1963      2.00000
     48       0.1963      2.00000
     49       2.1228      2.00000
     50       2.1228      2.00000
     51       2.1228      2.00000
     52       2.1228      2.00000
     53       2.1927      2.00000
     54       2.1927      2.00000
     55       2.1927      2.00000
     56       2.1927      2.00000
     57       2.1927      2.00000
     58       2.1927      2.00000
     59       2.1928      2.00000
     60       2.1928      2.00000
     61       2.2681      2.00000
     62       2.2681      2.00000
     63       2.2681      2.00000
     64       2.2681      2.00000
     65       2.2682      2.00000
     66       2.2682      2.00000
     67       2.2682      2.00000
     68       2.2682      2.00000
     69       2.9862      2.00000
     70       2.9862      2.00000
     71       3.0618      2.00000
     72       3.0618      2.00000
     73       3.0618      2.00000
     74       3.0618      2.00000
     75       3.0618      2.00000
     76       3.0618      2.00000
     77       3.0618      2.00000
     78       3.0618      2.00000
     79       3.4253      2.00000
     80       3.4253      2.00000
     81       3.4253      2.00000
     82       3.4253      2.00000
     83       3.5432      2.00000
     84       3.5432      2.00000
     85       3.5432      2.00000
     86       3.5432      2.00000
     87       3.5433      2.00000
     88       3.5433      2.00000
     89       3.5433      2.00000
     90       3.5433      2.00000
     91       3.8027      2.00000
     92       3.8027      2.00000
     93       4.0621      2.00000
     94       4.0621      2.00000
     95       4.0622      2.00000
     96       4.0622      2.00000
     97       4.0622      2.00000
     98       4.0622      2.00000
     99       4.0622      2.00000
    100       4.0623      2.00000
    101       4.6451      2.00000
    102       4.6451      2.00000
    103       4.6451      2.00000
    104       4.6451      2.00000
    105       5.2737      2.00000
    106       5.2737      2.00000
    107       5.2737      2.00000
    108       5.2737      2.00000
    109       6.5450      0.00000
    110       6.5450      0.00000
    111       7.5419      0.00000
    112       7.5419      0.00000
    113       7.8789      0.00000
    114       7.8789      0.00000
    115       7.8789      0.00000
    116       7.8789      0.00000
    117       7.8789      0.00000
    118       7.8790      0.00000
    119       7.8790      0.00000
    120       7.8790      0.00000
    121       8.5854      0.00000
    122       8.5854      0.00000
    123       8.5854      0.00000
    124       8.5854      0.00000
    125       8.5854      0.00000
    126       8.5854      0.00000
    127       8.5854      0.00000
    128       8.5854      0.00000
    129       8.6905      0.00000
    130       8.6905      0.00000
    131       8.6906      0.00000
    132       8.6906      0.00000
    133       8.6906      0.00000
    134       8.6906      0.00000
    135       8.6906      0.00000
    136       8.6906      0.00000


--------------------------------------------------------------------------------------------------------


 soft charge-density along one line, spin component            1
         0         1         2         3         4         5         6         7         8         9
 total charge-density along one line
 
 pseudopotential strength for first ion, spin component:            1
 18.412  25.688  -0.000  -0.000  -0.000  -0.000  -0.000  -0.000
 25.688  35.844  -0.000  -0.000  -0.000  -0.000  -0.000  -0.000
 -0.000  -0.000   4.178  -0.000  -0.000   7.786  -0.000  -0.000
 -0.000  -0.000  -0.000   4.178  -0.000  -0.000   7.786  -0.000
 -0.000  -0.000  -0.000  -0.000   4.178  -0.000  -0.000   7.786
 -0.000  -0.000   7.786  -0.000  -0.000  14.519  -0.000  -0.000
 -0.000  -0.000  -0.000   7.786  -0.000  -0.000  14.519  -0.000
 -0.000  -0.000  -0.000  -0.000   7.786  -0.000  -0.000  14.519
 total augmentation occupancy for first ion, spin component:            1
  5.712  -2.163   0.000  -0.000  -0.000  -0.000   0.000  -0.000
 -2.163   0.929  -0.000  -0.000   0.000  -0.000  -0.000   0.000
  0.000  -0.000   2.990   0.000   0.000  -0.674   0.000  -0.000
  0.000  -0.000   0.000   2.990  -0.000  -0.000  -0.674   0.000
  0.000   0.000   0.000  -0.000   2.990  -0.000   0.000  -0.674
 -0.000  -0.000  -0.674  -0.000  -0.000   0.161   0.000   0.000
 -0.000  -0.000  -0.000  -0.674   0.000   0.000   0.161  -0.000
  0.000   0.000  -0.000   0.000  -0.674   0.000  -0.000   0.161


------------------------ aborting loop because EDIFF is reached ----------------------------------------


    CHARGE:  cpu time      0.1285: real time      0.1289
    FORLOC:  cpu time      0.0028: real time      0.0029
    FORNL :  cpu time      0.2578: real time      0.2585
    STRESS:  cpu time      0.7617: real time      0.7639
    FORCOR:  cpu time      0.0102: real time      0.0103
    FORHAR:  cpu time      0.0025: real time      0.0025
    MIXING:  cpu time      0.0350: real time      0.0351
    OFIELD:  cpu time      0.0000: real time      0.0000

  FORCE on cell =-STRESS in cart. coord.  units (eV):
  Direction    XX          YY          ZZ          XY          YZ          ZX
  --------------------------------------------------------------------------------------
  Alpha Z    90.83198    90.83198    90.83198
  Ewald   -2057.08417 -2057.08417 -2057.08417     0.00000     0.00000     0.00000
  Hartree   134.80505   134.80505   134.80505     0.00000     0.00000     0.00000
  E(xc)    -685.22744  -685.22744  -685.22744    -0.00008    -0.00008    -0.00008
  Local    -789.89001  -789.89001  -789.89001     0.00083     0.00083     0.00083
  n-local  2107.37289  2086.01516  2107.37290    -8.69021     8.69048     8.69049
  augment  -313.94295  -313.94295  -313.94295    -0.00061    -0.00061    -0.00061
  Kinetic  1544.14171  1513.55034  1544.14171   -14.06823    14.06839    14.06838
  Fock        0.00000     0.00000     0.00000     0.00000     0.00000     0.00000
  -------------------------------------------------------------------------------------
  Total      13.69070    13.69070    13.69070    -0.00000     0.00000    -0.00000
  in kB      20.29705    20.29705    20.29705    -0.00000     0.00000    -0.00000
  external pressure =       20.30 kB  Pullay stress =        0.00 kB


 VOLUME and BASIS-vectors are now :
 -----------------------------------------------------------------------------
  energy-cutoff  :      400.00
  volume of cell :     1080.70
      direct lattice vectors                 reciprocal lattice vectors
     8.145000000  8.145000000  0.000000000     0.061387354  0.061387354 -0.061387354
     0.000000000  8.145000000  8.145000000    -0.061387354  0.061387354  0.061387354
     8.145000000  0.000000000  8.145000000     0.061387354 -0.061387354  0.061387354

  length of vectors
    11.518769466 11.518769466 11.518769466     0.106326016  0.106326016  0.106326016


 FORCES acting on ions
    electron-ion (+dipol)            ewald-force                    non-local-force                 convergence-correction
 -----------------------------------------------------------------------------------------------
   -.153E-05 -.153E-05 -.153E-05   -.949E-09 -.949E-09 -.949E-09   0.296E-16 -.550E-17 0.840E-17   -.184E-13 -.409E-14 -.752E-14
   0.280E-03 0.280E-03 0.280E-03   0.262E-03 0.262E-03 0.262E-03   -.421E-16 -.762E-17 -.453E-16   -.116E-13 -.106E-13 -.120E-13
   0.130E-03 0.971E-05 0.130E-03   -.704E-05 0.276E-03 -.704E-05   0.638E-16 0.495E-16 0.179E-16   0.311E-15 -.772E-14 0.955E-14
   0.887E-06 0.275E-03 0.887E-06   0.154E-04 0.231E-03 0.154E-04   -.441E-16 -.435E-16 -.205E-16   0.730E-14 -.242E-13 0.104E-13
   -.145E-03 0.837E-05 -.145E-03   -.253E-03 0.245E-03 -.253E-03   0.333E-16 -.149E-17 0.642E-16   0.931E-14 -.222E-13 0.177E-13
   0.138E-03 0.293E-03 0.138E-03   0.840E-05 0.507E-03 0.840E-05   -.374E-16 -.429E-16 -.748E-17   -.982E-15 -.339E-13 0.639E-15
   0.971E-05 0.130E-03 0.130E-03   0.276E-03 -.704E-05 -.704E-05   0.257E-16 0.632E-17 0.221E-16   -.730E-14 -.292E-14 -.240E-14
   0.275E-03 0.888E-06 0.886E-06   0.231E-03 0.154E-04 0.154E-04   -.622E-16 0.314E-17 -.450E-16   -.202E-13 -.272E-14 0.738E-14
   0.147E-03 0.147E-03 0.268E-03   0.269E-03 0.269E-03 -.141E-04   0.630E-16 0.542E-16 0.199E-16   -.310E-16 -.139E-13 0.793E-14
   -.745E-06 -.746E-06 -.275E-03   -.154E-04 -.154E-04 -.231E-03   -.404E-16 -.278E-16 -.770E-17   -.120E-13 -.245E-13 0.121E-13
   -.131E-03 0.143E-03 -.106E-04   0.225E-04 0.238E-03 -.260E-03   0.194E-16 0.621E-17 0.528E-16   0.414E-14 -.271E-13 0.548E-14
   0.131E-03 0.106E-04 -.143E-03   -.225E-04 0.260E-03 -.238E-03   -.172E-16 -.242E-16 -.157E-17   -.893E-14 -.167E-13 0.189E-13
   0.837E-05 -.145E-03 -.145E-03   0.245E-03 -.253E-03 -.253E-03   0.177E-16 0.191E-16 0.241E-16   -.324E-13 0.143E-13 0.135E-13
   0.293E-03 0.138E-03 0.138E-03   0.507E-03 0.840E-05 0.840E-05   -.481E-16 -.151E-16 -.477E-16   -.412E-13 0.165E-14 0.865E-14
   0.143E-03 -.131E-03 -.106E-04   0.238E-03 0.225E-04 -.260E-03   0.736E-16 0.524E-16 0.272E-16   -.229E-13 -.476E-14 0.184E-13
   0.106E-04 0.131E-03 -.143E-03   0.260E-03 -.225E-04 -.238E-03   -.267E-16 -.102E-16 -.223E-16   -.136E-13 -.945E-14 0.296E-13
   -.138E-03 -.138E-03 -.293E-03   -.840E-05 -.840E-05 -.507E-03   0.266E-16 0.207E-16 0.416E-16   -.747E-14 -.248E-14 0.401E-13
   0.145E-03 0.145E-03 -.837E-05   0.253E-03 0.253E-03 -.245E-03   -.379E-17 -.444E-16 -.932E-17   -.183E-13 -.683E-14 0.314E-13
   0.130E-03 0.130E-03 0.971E-05   -.704E-05 -.704E-05 0.276E-03   0.286E-16 0.699E-17 0.146E-16   -.366E-14 0.996E-14 -.533E-14
   0.886E-06 0.888E-06 0.275E-03   0.154E-04 0.154E-04 0.231E-03   -.309E-16 -.209E-16 -.583E-16   0.391E-14 -.185E-14 -.220E-13
   0.268E-03 0.147E-03 0.147E-03   -.141E-04 0.269E-03 0.269E-03   0.722E-16 0.626E-16 0.185E-16   0.166E-14 -.426E-14 -.995E-15
   -.275E-03 -.746E-06 -.745E-06   -.231E-03 -.154E-04 -.154E-04   -.473E-16 -.258E-16 -.189E-16   0.114E-13 -.224E-13 -.118E-13
   -.106E-04 0.143E-03 -.131E-03   -.260E-03 0.238E-03 0.225E-04   0.388E-16 0.244E-17 0.535E-16   0.105E-13 -.213E-13 0.722E-14
   -.143E-03 0.106E-04 0.131E-03   -.238E-03 0.260E-03 -.225E-04   -.368E-16 -.418E-16 -.116E-16   0.193E-13 -.184E-13 -.581E-14
   0.147E-03 0.268E-03 0.147E-03   0.269E-03 -.141E-04 0.269E-03   0.296E-16 0.119E-16 0.203E-16   -.451E-15 0.310E-15 -.125E-13
   -.745E-06 -.275E-03 -.745E-06   -.154E-04 -.231E-03 -.154E-04   -.583E-16 -.125E-17 -.631E-16   -.966E-14 0.625E-14 -.165E-13
   0.282E-03 0.282E-03 0.282E-03   0.262E-03 0.262E-03 0.262E-03   0.802E-16 0.625E-16 0.117E-16   -.846E-15 -.122E-13 -.477E-14
   -.282E-03 -.282E-03 -.282E-03   -.262E-03 -.262E-03 -.262E-03   -.607E-16 -.272E-16 -.216E-16   0.590E-14 -.293E-14 0.493E-14
   0.745E-06 0.275E-03 0.745E-06   0.154E-04 0.231E-03 0.154E-04   0.133E-16 0.775E-17 0.409E-16   0.177E-13 -.149E-13 0.715E-14
   -.147E-03 -.268E-03 -.147E-03   -.269E-03 0.141E-04 -.269E-03   -.564E-17 -.202E-16 -.243E-16   0.910E-14 -.106E-14 0.495E-14
   0.143E-03 -.106E-04 -.131E-03   0.238E-03 -.260E-03 0.225E-04   0.607E-17 0.248E-16 -.960E-17   -.270E-13 0.171E-13 -.774E-15
   0.106E-04 -.143E-03 0.131E-03   0.260E-03 -.238E-03 -.225E-04   -.602E-16 -.710E-17 -.574E-16   -.166E-13 0.273E-13 0.633E-15
   0.275E-03 0.746E-06 0.745E-06   0.231E-03 0.154E-04 0.154E-04   0.669E-16 0.489E-16 0.322E-16   -.783E-14 0.120E-13 0.177E-13
   -.268E-03 -.147E-03 -.147E-03   0.141E-04 -.269E-03 -.269E-03   -.563E-16 -.227E-16 -.192E-16   -.210E-14 0.111E-13 0.162E-13
   -.886E-06 -.888E-06 -.275E-03   -.154E-04 -.154E-04 -.231E-03   0.114E-16 0.298E-18 0.389E-16   -.387E-14 0.216E-14 0.293E-13
   -.130E-03 -.130E-03 -.971E-05   0.704E-05 0.704E-05 -.276E-03   -.250E-16 -.302E-16 -.243E-16   -.880E-14 0.635E-14 0.869E-14
   -.145E-03 -.145E-03 0.837E-05   -.253E-03 -.253E-03 0.245E-03   0.348E-16 0.265E-16 0.198E-16   0.836E-14 0.185E-13 -.249E-13
   0.138E-03 0.138E-03 0.293E-03   0.840E-05 0.840E-05 0.507E-03   -.633E-16 -.102E-16 -.543E-16   0.478E-14 0.378E-14 -.355E-13
   -.106E-04 -.131E-03 0.143E-03   -.260E-03 0.225E-04 0.238E-03   0.619E-16 0.484E-16 0.207E-16   0.154E-13 0.400E-14 -.214E-13
   -.143E-03 0.131E-03 0.106E-04   -.238E-03 -.225E-04 0.260E-03   -.571E-16 -.355E-16 -.284E-16   0.259E-13 -.816E-14 -.135E-13
   -.293E-03 -.138E-03 -.138E-03   -.507E-03 -.840E-05 -.840E-05   0.375E-16 0.106E-16 0.379E-16   0.348E-13 0.456E-15 -.180E-14
   -.837E-05 0.145E-03 0.145E-03   -.245E-03 0.253E-03 0.253E-03   -.259E-16 -.489E-16 -.125E-16   0.288E-13 -.548E-14 -.140E-13
   -.131E-03 -.106E-04 0.143E-03   0.225E-04 -.260E-03 0.238E-03   0.271E-16 -.125E-17 0.207E-16   0.706E-14 0.112E-13 -.292E-13
   0.131E-03 -.143E-03 0.106E-04   -.225E-04 -.238E-03 0.260E-03   -.558E-16 -.112E-16 -.488E-16   -.272E-14 0.206E-13 -.168E-13
   0.745E-06 0.746E-06 0.275E-03   0.154E-04 0.154E-04 0.231E-03   0.578E-16 0.606E-16 0.122E-16   0.224E-13 0.114E-13 -.117E-13
   -.147E-03 -.147E-03 -.268E-03   -.269E-03 -.269E-03 0.141E-04   -.566E-16 -.257E-16 -.235E-16   0.175E-13 0.893E-14 -.110E-14
   -.275E-03 -.888E-06 -.886E-06   -.231E-03 -.154E-04 -.154E-04   0.230E-16 0.135E-16 0.467E-16   0.302E-13 -.121E-14 -.106E-13
   -.971E-05 -.130E-03 -.130E-03   -.276E-03 0.704E-05 0.704E-05   -.411E-16 -.232E-16 -.168E-16   0.930E-14 0.640E-15 -.703E-14
   -.138E-03 -.293E-03 -.138E-03   -.840E-05 -.507E-03 -.840E-05   0.134E-16 0.306E-16 0.434E-18   -.473E-14 0.417E-13 -.679E-14
   0.145E-03 -.837E-05 0.145E-03   0.253E-03 -.245E-03 0.253E-03   -.588E-16 -.813E-18 -.470E-16   -.966E-14 0.297E-13 -.782E-14
   -.887E-06 -.275E-03 -.887E-06   -.154E-04 -.231E-03 -.154E-04   0.825E-16 0.598E-16 0.341E-16   0.441E-14 0.268E-13 0.273E-15
   -.130E-03 -.971E-05 -.130E-03   0.704E-05 -.276E-03 0.704E-05   -.323E-16 -.295E-16 -.323E-16   0.280E-15 0.635E-14 0.289E-14
   -.280E-03 -.280E-03 -.280E-03   -.262E-03 -.262E-03 -.262E-03   0.452E-16 -.407E-17 0.417E-16   0.641E-14 0.150E-13 0.958E-14
   0.153E-05 0.153E-05 0.153E-05   0.949E-09 0.949E-09 0.949E-09   0.575E-17 -.206E-16 -.488E-17   0.618E-14 0.136E-13 0.715E-14
 -----------------------------------------------------------------------------------------------
   0.227E-09 0.226E-09 0.225E-09   0.300E-13 -.214E-13 -.964E-13   -.542E-17 0.588E-16 -.405E-16   0.903E-14 -.707E-14 0.439E-13
 
 
 POSITION                                       TOTAL-FORCE (eV/Angst)
 -----------------------------------------------------------------------------------
      0.00000      0.00000      0.00000         0.000000      0.000000      0.000000
      1.35749      1.35749      1.35749        -0.000000     -0.000000      0.000000
      2.71500      0.00000      2.71500        -0.000000      0.000000      0.000000
      4.07250      1.35749      4.07250        -0.000000      0.000000     -0.000000
      5.43000      0.00000      5.43000         0.000000     -0.000000      0.000000
      6.78750      1.35749      6.78750        -0.000000      0.000000     -0.000000
      0.00000      2.71500      2.71500        -0.000000      0.000000      0.000000
      1.35749      4.07250      4.07250        -0.000000     -0.000000     -0.000000
      2.71500      2.71500      5.42999         0.000000      0.000000      0.000000
      4.07250      4.07250      6.78751        -0.000000     -0.000000     -0.000000
      5.43000      2.71500      8.14500         0.000000      0.000000     -0.000000
      6.78750      4.07250      9.50250        -0.000000     -0.000000      0.000000
      0.00000      5.43000      5.43000        -0.000000      0.000000      0.000000
      1.35749      6.78750      6.78750        -0.000000     -0.000000      0.000000
      2.71500      5.43000      8.14500         0.000000     -0.000000      0.000000
      4.07250      6.78750      9.50250        -0.000000      0.000000     -0.000000
      5.43000      5.43000     10.86001         0.000000      0.000000     -0.000000
      6.78750      6.78750     12.21750        -0.000000     -0.000000     -0.000000
      2.71500      2.71500      0.00000         0.000000      0.000000      0.000000
      4.07250      4.07250      1.35749        -0.000000     -0.000000      0.000000
      5.42999      2.71500      2.71500         0.000000      0.000000      0.000000
      6.78751      4.07250      4.07250        -0.000000      0.000000     -0.000000
      8.14500      2.71500      5.43000         0.000000      0.000000     -0.000000
      9.50250      4.07250      6.78750        -0.000000     -0.000000     -0.000000
      2.71500      5.42999      2.71500         0.000000      0.000000     -0.000000
      4.07250      6.78751      4.07250        -0.000000     -0.000000     -0.000000
      5.42999      5.42999      5.42999         0.000000      0.000000      0.000000
      6.78751      6.78751      6.78751        -0.000000     -0.000000     -0.000000
      8.14500      5.42999      8.14500         0.000000      0.000000      0.000000
      9.50250      6.78751      9.50250        -0.000000     -0.000000     -0.000000
      2.71500      8.14500      5.43000         0.000000      0.000000     -0.000000
      4.07250      9.50250      6.78750        -0.000000     -0.000000     -0.000000
      5.42999      8.14500      8.14500         0.000000     -0.000000      0.000000
      6.78751      9.50250      9.50250         0.000000     -0.000000     -0.000000
      8.14500      8.14500     10.86001         0.000000      0.000000      0.000000
      9.50250      9.50250     12.21750        -0.000000      0.000000     -0.000000
      5.43000      5.43000      0.00000         0.000000      0.000000      0.000000
      6.78750      6.78750      1.35749        -0.000000     -0.000000      0.000000
      8.14500      5.43000      2.71500         0.000000      0.000000      0.000000
      9.50250      6.78750      4.07250        -0.000000      0.000000     -0.000000
     10.86001      5.43000      5.43000         0.000000     -0.000000     -0.000000
     12.21750      6.78750      6.78750        -0.000000     -0.000000     -0.000000
      5.43000      8.14500      2.71500        -0.000000      0.000000      0.000000
      6.78750      9.50250      4.07250        -0.000000     -0.000000      0.000000
      8.14500      8.14500      5.42999         0.000000      0.000000      0.000000
      9.50250      9.50250      6.78751         0.000000      0.000000     -0.000000
     10.86001      8.14500      8.14500         0.000000     -0.000000      0.000000
     12.21750      9.50250      9.50250        -0.000000      0.000000     -0.000000
      5.43000     10.86001      5.43000         0.000000      0.000000      0.000000
      6.78750     12.21750      6.78750        -0.000000     -0.000000     -0.000000
      8.14500     10.86001      8.14500         0.000000      0.000000      0.000000
      9.50250     12.21750      9.50250         0.000000     -0.000000     -0.000000
     10.86001     10.86001     10.86001         0.000000      0.000000     -0.000000
     12.21750     12.21750     12.21750        -0.000000      0.000000     -0.000000
 -----------------------------------------------------------------------------------
    total drift:                                0.000000      0.000000      0.000000


--------------------------------------------------------------------------------------------------------



  FREE ENERGIE OF THE ION-ELECTRON SYSTEM (eV)
  ---------------------------------------------------
  free  energy   TOTEN  =      -292.16779307 eV

  energy  without entropy=     -292.16779307  energy(sigma->0) =     -292.16779307
 


--------------------------------------------------------------------------------------------------------


    POTLOK:  cpu time      0.0486: real time      0.0488


--------------------------------------------------------------------------------------------------------


 writing wavefunctions
     LOOP+:  cpu time     10.4323: real time     10.4912
    4ORBIT:  cpu time      0.0000: real time      0.0000

 total amount of memory used by VASP MPI-rank0   291061. kBytes
=======================================================================

   base                                    :      30000. kBytes
   nonlr-proj                              :       5819. kBytes
   fftplans                                :      48668. kBytes
   grid                                    :      75314. kBytes
   one-center                              :        165. kBytes
   wavefun                                 :     131095. kBytes
 
  
  
 General timing and accounting informations for this job:
 ========================================================
  
                  Total CPU time used (sec):       14.714
                            User time (sec):       12.506
                          System time (sec):        2.208
                         Elapsed time (sec):       15.281
  
                   Maximum memory used (kb):     2264384.
                   Average memory used (kb):          N/A
  
                          Minor page faults:       311041
                          Major page faults:          231
                 Voluntary context switches:        13849
