       N       E                     dE             d eps       ncg     rms          rms(c)
DAV:   1     0.233451923005E+04    0.23345E+04   -0.32816E+05  1264   0.107E+03
DAV:   2    -0.109905820049E+04   -0.34336E+04   -0.32612E+04  1496   0.175E+02
DAV:   3    -0.136421623542E+04   -0.26516E+03   -0.25915E+03  1544   0.426E+01
DAV:   4    -0.137104914724E+04   -0.68329E+01   -0.67844E+01  1464   0.841E+00
DAV:   5    -0.137127753669E+04   -0.22839E+00   -0.22814E+00  1496   0.142E+00    0.551E+01
DAV:   6    -0.135484336803E+04    0.16434E+02   -0.94707E+00  1400   0.247E+00    0.339E+01
DAV:   7    -0.134743985911E+04    0.74035E+01   -0.20696E+01  1376   0.377E+00    0.210E+00
DAV:   8    -0.134753182392E+04   -0.91965E-01   -0.10865E+00  1344   0.974E-01    0.702E-01
DAV:   9    -0.134755970114E+04   -0.27877E-01   -0.43760E-02  1504   0.223E-01    0.601E-01
DAV:  10    -0.134756909002E+04   -0.93889E-02   -0.23773E-02  1344   0.152E-01    0.403E-01
DAV:  11    -0.134756946567E+04   -0.37565E-03   -0.12287E-03  1408   0.367E-02    0.378E-02
DAV:  12    -0.134756953986E+04   -0.74193E-04   -0.84029E-05  1464   0.967E-03    0.337E-02
DAV:  13    -0.134756951842E+04    0.21444E-04   -0.16230E-05  1328   0.354E-03    0.354E-03
DAV:  14    -0.134756951837E+04    0.45892E-07   -0.24695E-07   864   0.537E-04    0.253E-03
DAV:  15    -0.134756951869E+04   -0.31730E-06   -0.39633E-08   752   0.239E-04    0.833E-04
DAV:  16    -0.134756951842E+04    0.27193E-06   -0.11591E-08   752   0.114E-04    0.326E-04
DAV:  17    -0.134756951840E+04    0.13443E-07   -0.37917E-09   752   0.632E-05    0.144E-04
DAV:  18    -0.134756951837E+04    0.34719E-07   -0.14226E-09   752   0.349E-05    0.632E-05
DAV:  19    -0.134756951837E+04    0.97907E-09   -0.59857E-10   752   0.207E-05    0.430E-06
DAV:  20    -0.134756951836E+04    0.86352E-08   -0.27432E-10   752   0.120E-05
   1 F= -.13475695E+04 E0= -.13475695E+04  d E =-.490627E-14
