       N       E                     dE             d eps       ncg     rms          rms(c)
DAV:   1    -0.292167793071E+03   -0.29217E+03   -0.88948E-11   528   0.183E-05    0.497E-06
DAV:   2    -0.292167793071E+03   -0.16939E-10   -0.31143E-11   528   0.997E-06    0.539E-06
DAV:   3    -0.292167793071E+03   -0.83901E-10   -0.12187E-11   528   0.590E-06    0.226E-05
DAV:   4    -0.292167793071E+03    0.21510E-09   -0.59643E-12   528   0.346E-06    0.285E-06
DAV:   5    -0.292167793071E+03   -0.10004E-10   -0.12898E-12   512   0.214E-06    0.542E-07
DAV:   6    -0.292167793071E+03    0.96634E-12    0.14551E-13   504   0.122E-06    0.738E-07
DAV:   7    -0.292167793071E+03    0.14268E-10   -0.17893E-12   480   0.806E-07    0.959E-07
DAV:   8    -0.292167793071E+03    0.54570E-11    0.82497E-13   480   0.499E-07    0.406E-07
DAV:   9    -0.292167793071E+03    0.48090E-10    0.59251E-13   464   0.332E-07    0.171E-07
DAV:  10    -0.292167793071E+03   -0.11937E-10    0.24959E-13   448   0.199E-07    0.449E-07
DAV:  11    -0.292167793071E+03    0.40131E-10    0.95826E-13   448   0.157E-07    0.522E-07
DAV:  12    -0.292167793071E+03   -0.28081E-10   -0.28445E-12   448   0.175E-07    0.337E-07
DAV:  13    -0.292167793071E+03   -0.35811E-10    0.11210E-12   448   0.728E-08    0.579E-08
DAV:  14    -0.292167793071E+03    0.16826E-10   -0.34001E-15   448   0.430E-08    0.858E-09
DAV:  15    -0.292167793071E+03   -0.15916E-11    0.94688E-13   448   0.310E-08    0.107E-08
DAV:  16    -0.292167793071E+03    0.50136E-10    0.15468E-12   448   0.228E-08    0.641E-09
DAV:  17    -0.292167793071E+03   -0.47294E-10    0.14884E-12   448   0.157E-08    0.227E-09
DAV:  18    -0.292167793071E+03    0.50193E-10    0.19965E-12   448   0.107E-08    0.876E-10
DAV:  19    -0.292167793071E+03    0.61959E-11   -0.28991E-13   448   0.816E-09    0.161E-10
DAV:  20    -0.292167793071E+03   -0.46725E-10    0.11209E-12   448   0.586E-09
   1 F= -.29216779E+03 E0= -.29216779E+03  d E =-.388259E-12
