       N       E                     dE             d eps       ncg     rms          rms(c)
DAV:   1    -0.693902857162E+03   -0.69390E+03   -0.15874E-10  1092   0.103E-05    0.450E-06
DAV:   2    -0.693902857162E+03    0.25341E-09   -0.79753E-11  1092   0.573E-06    0.619E-06
DAV:   3    -0.693902857163E+03   -0.33594E-09   -0.42066E-11  1092   0.352E-06    0.138E-05
DAV:   4    -0.693902857162E+03    0.42132E-09   -0.20043E-11  1068   0.220E-06    0.438E-06
DAV:   5    -0.693902857162E+03    0.24852E-09   -0.11243E-11  1068   0.146E-06    0.121E-06
DAV:   6    -0.693902857162E+03    0.13631E-09   -0.68978E-12  1068   0.942E-07    0.108E-06
DAV:   7    -0.693902857162E+03    0.14836E-09   -0.37369E-12  1068   0.653E-07    0.713E-07
DAV:   8    -0.693902857162E+03   -0.32060E-10   -0.36111E-12  1068   0.446E-07    0.422E-07
DAV:   9    -0.693902857162E+03   -0.11994E-09   -0.25094E-12  1068   0.315E-07    0.461E-08
DAV:  10    -0.693902857162E+03    0.23192E-09   -0.19570E-12  1052   0.208E-07    0.914E-08
DAV:  11    -0.693902857162E+03   -0.11210E-09   -0.29640E-13  1044   0.152E-07    0.102E-07
DAV:  12    -0.693902857162E+03   -0.67075E-10    0.24382E-14  1044   0.105E-07    0.294E-08
DAV:  13    -0.693902857162E+03    0.65370E-10   -0.30187E-12  1042   0.791E-08    0.485E-08
DAV:  14    -0.693902857162E+03   -0.15689E-10   -0.98960E-13  1041   0.543E-08    0.677E-08
DAV:  15    -0.693902857162E+03    0.23306E-10   -0.10360E-12  1041   0.413E-08    0.577E-08
DAV:  16    -0.693902857162E+03    0.12960E-10   -0.23888E-13  1041   0.285E-08    0.528E-08
DAV:  17    -0.693902857162E+03   -0.64006E-10   -0.18760E-12  1041   0.223E-08    0.402E-08
DAV:  18    -0.693902857162E+03    0.17042E-09   -0.36064E-13  1041   0.167E-08    0.234E-08
DAV:  19    -0.693902857162E+03   -0.10300E-09   -0.36690E-13  1041   0.137E-08    0.635E-09
DAV:  20    -0.693902857162E+03    0.49681E-10   -0.13835E-12  1033   0.971E-09
   1 F= -.69390286E+03 E0= -.69390286E+03  d E =-.117884E-11
