       N       E                     dE             d eps       ncg     rms          rms(c)
DAV:   1     0.404333326675E+04    0.40433E+04   -0.56696E+05  2164   0.107E+03
DAV:   2    -0.190294258836E+04   -0.59463E+04   -0.56550E+04  2558   0.176E+02
DAV:   3    -0.236419099178E+04   -0.46125E+03   -0.45224E+03  2632   0.432E+01
DAV:   4    -0.237692565218E+04   -0.12735E+02   -0.12639E+02  2528   0.869E+00
DAV:   5    -0.237740958173E+04   -0.48393E+00   -0.48296E+00  2664   0.153E+00    0.720E+01
DAV:   6    -0.234983763983E+04    0.27572E+02   -0.15828E+01  2440   0.246E+00    0.442E+01
DAV:   7    -0.233740633563E+04    0.12431E+02   -0.34770E+01  2400   0.375E+00    0.274E+00
DAV:   8    -0.233754822252E+04   -0.14189E+00   -0.19327E+00  2376   0.999E-01    0.924E-01
DAV:   9    -0.233759054969E+04   -0.42327E-01   -0.73200E-02  2608   0.219E-01    0.798E-01
DAV:  10    -0.233760663950E+04   -0.16090E-01   -0.43446E-02  2352   0.160E-01    0.658E-01
DAV:  11    -0.233760757946E+04   -0.93995E-03   -0.26410E-03  2472   0.411E-02    0.377E-02
DAV:  12    -0.233760768246E+04   -0.10301E-03   -0.11595E-04  2584   0.838E-03    0.468E-02
DAV:  13    -0.233760766170E+04    0.20769E-04   -0.31737E-05  2464   0.418E-03    0.617E-03
DAV:  14    -0.233760766368E+04   -0.19825E-05   -0.35707E-07  1608   0.512E-04    0.534E-03
DAV:  15    -0.233760766293E+04    0.75154E-06   -0.15374E-07  1376   0.340E-04    0.120E-03
DAV:  16    -0.233760766228E+04    0.64949E-06   -0.36361E-08  1376   0.150E-04    0.681E-04
DAV:  17    -0.233760766231E+04   -0.29346E-07   -0.68493E-09  1376   0.715E-05    0.747E-04
DAV:  18    -0.233760766232E+04   -0.17284E-07   -0.16808E-09  1376   0.353E-05    0.683E-04
DAV:  19    -0.233760766232E+04    0.25930E-08   -0.29510E-09  1376   0.603E-05    0.706E-05
DAV:  20    -0.233760766232E+04   -0.17999E-08   -0.14020E-09  1352   0.340E-05
   1 F= -.23376077E+04 E0= -.23376077E+04  d E =-.137590E-14
