       N       E                     dE             d eps       ncg     rms          rms(c)
DAV:   1    -0.693902857163E+03   -0.69390E+03   -0.14092E-10  1092   0.101E-05    0.459E-06
DAV:   2    -0.693902857162E+03    0.31525E-09   -0.68632E-11  1068   0.554E-06    0.617E-06
DAV:   3    -0.693902857163E+03   -0.27012E-09   -0.38731E-11  1068   0.339E-06    0.142E-05
DAV:   4    -0.693902857162E+03    0.61959E-09   -0.16633E-11  1068   0.210E-06    0.408E-06
DAV:   5    -0.693902857162E+03    0.17496E-09   -0.10610E-11  1068   0.139E-06    0.106E-06
DAV:   6    -0.693902857162E+03   -0.10152E-09   -0.82229E-12  1068   0.888E-07    0.985E-07
DAV:   7    -0.693902857162E+03    0.11551E-09   -0.29843E-12  1068   0.614E-07    0.526E-07
DAV:   8    -0.693902857162E+03    0.13290E-09    0.14037E-12  1068   0.412E-07    0.425E-07
DAV:   9    -0.693902857162E+03   -0.11880E-09    0.59780E-13  1052   0.292E-07    0.276E-08
DAV:  10    -0.693902857162E+03    0.67303E-10   -0.22888E-12  1044   0.193E-07    0.603E-08
DAV:  11    -0.693902857162E+03   -0.34902E-10    0.92070E-14  1042   0.142E-07    0.631E-08
DAV:  12    -0.693902857162E+03    0.49567E-10    0.15131E-12  1041   0.980E-08    0.339E-08
DAV:  13    -0.693902857162E+03   -0.46612E-11    0.16519E-12  1041   0.743E-08    0.292E-08
DAV:  14    -0.693902857162E+03   -0.10346E-10    0.27204E-12  1041   0.495E-08    0.388E-08
DAV:  15    -0.693902857162E+03   -0.19440E-10   -0.39019E-13  1041   0.377E-08    0.318E-08
DAV:  16    -0.693902857162E+03    0.10027E-09   -0.13934E-12  1041   0.259E-08    0.341E-08
DAV:  17    -0.693902857162E+03   -0.10505E-09   -0.36013E-13  1017   0.203E-08    0.280E-08
DAV:  18    -0.693902857162E+03    0.31150E-10    0.21264E-12  1015   0.144E-08    0.246E-08
DAV:  19    -0.693902857162E+03    0.77307E-11    0.12561E-12  1014   0.119E-08    0.174E-08
DAV:  20    -0.693902857162E+03    0.13642E-11    0.18389E-12  1014   0.889E-09
   1 F= -.69390286E+03 E0= -.69390286E+03  d E =-.117884E-11
