       N       E                     dE             d eps       ncg     rms          rms(c)
DAV:   1     0.402211349509E+04    0.40221E+04   -0.56662E+05  2176   0.107E+03
DAV:   2    -0.190559371102E+04   -0.59277E+04   -0.56325E+04  2568   0.175E+02
DAV:   3    -0.236437908265E+04   -0.45879E+03   -0.44990E+03  2656   0.430E+01
DAV:   4    -0.237693908960E+04   -0.12560E+02   -0.12466E+02  2552   0.861E+00
DAV:   5    -0.237740931484E+04   -0.47023E+00   -0.46924E+00  2672   0.151E+00    0.720E+01
DAV:   6    -0.234983768710E+04    0.27572E+02   -0.15765E+01  2464   0.244E+00    0.442E+01
DAV:   7    -0.233740526460E+04    0.12432E+02   -0.34658E+01  2392   0.373E+00    0.274E+00
DAV:   8    -0.233754820803E+04   -0.14294E+00   -0.19409E+00  2440   0.996E-01    0.925E-01
DAV:   9    -0.233759047954E+04   -0.42272E-01   -0.73420E-02  2616   0.218E-01    0.798E-01
DAV:  10    -0.233760664703E+04   -0.16167E-01   -0.43461E-02  2368   0.159E-01    0.656E-01
DAV:  11    -0.233760757656E+04   -0.92953E-03   -0.26102E-03  2496   0.407E-02    0.373E-02
DAV:  12    -0.233760767802E+04   -0.10146E-03   -0.11336E-04  2600   0.826E-03    0.463E-02
DAV:  13    -0.233760765792E+04    0.20104E-04   -0.31393E-05  2456   0.415E-03    0.607E-03
DAV:  14    -0.233760765983E+04   -0.19146E-05   -0.35073E-07  1640   0.506E-04    0.526E-03
DAV:  15    -0.233760765907E+04    0.76475E-06   -0.15229E-07  1400   0.338E-04    0.118E-03
DAV:  16    -0.233760765845E+04    0.62013E-06   -0.35253E-08  1400   0.148E-04    0.680E-04
DAV:  17    -0.233760765847E+04   -0.24432E-07   -0.65177E-09  1400   0.694E-05    0.744E-04
DAV:  18    -0.233760765848E+04   -0.68721E-08   -0.17005E-09  1400   0.330E-05    0.734E-04
DAV:  19    -0.233760765848E+04   -0.32192E-08   -0.41202E-09  1384   0.734E-05    0.125E-04
DAV:  20    -0.233760765849E+04   -0.81313E-08   -0.20199E-09  1376   0.382E-05
   1 F= -.23376077E+04 E0= -.23376077E+04  d E =-.101595E-14
