       N       E                     dE             d eps       ncg     rms          rms(c)
DAV:   1     0.403652475373E+04    0.40365E+04   -0.56685E+05  2168   0.107E+03
DAV:   2    -0.190477943619E+04   -0.59413E+04   -0.56490E+04  2564   0.176E+02
DAV:   3    -0.236430898074E+04   -0.45953E+03   -0.45058E+03  2640   0.431E+01
DAV:   4    -0.237693231686E+04   -0.12623E+02   -0.12529E+02  2536   0.865E+00
DAV:   5    -0.237740901127E+04   -0.47669E+00   -0.47570E+00  2664   0.152E+00    0.720E+01
DAV:   6    -0.234983761158E+04    0.27571E+02   -0.15811E+01  2448   0.245E+00    0.442E+01
DAV:   7    -0.233740598198E+04    0.12432E+02   -0.34734E+01  2400   0.374E+00    0.274E+00
DAV:   8    -0.233754817633E+04   -0.14219E+00   -0.19354E+00  2384   0.998E-01    0.925E-01
DAV:   9    -0.233759053608E+04   -0.42360E-01   -0.73330E-02  2616   0.219E-01    0.798E-01
DAV:  10    -0.233760663852E+04   -0.16102E-01   -0.43402E-02  2360   0.160E-01    0.657E-01
DAV:  11    -0.233760757481E+04   -0.93629E-03   -0.26313E-03  2480   0.409E-02    0.376E-02
DAV:  12    -0.233760767670E+04   -0.10189E-03   -0.11420E-04  2592   0.831E-03    0.465E-02
DAV:  13    -0.233760765670E+04    0.20006E-04   -0.31663E-05  2456   0.419E-03    0.617E-03
DAV:  14    -0.233760765876E+04   -0.20593E-05   -0.35800E-07  1624   0.511E-04    0.540E-03
DAV:  15    -0.233760765793E+04    0.82150E-06   -0.15802E-07  1384   0.343E-04    0.125E-03
DAV:  16    -0.233760765729E+04    0.64549E-06   -0.37869E-08  1384   0.152E-04    0.682E-04
DAV:  17    -0.233760765732E+04   -0.26440E-07   -0.68961E-09  1384   0.716E-05    0.743E-04
DAV:  18    -0.233760765732E+04   -0.73096E-08   -0.18033E-09  1384   0.338E-05    0.735E-04
DAV:  19    -0.233760765732E+04    0.78317E-08   -0.39163E-09  1384   0.740E-05    0.122E-04
DAV:  20    -0.233760765733E+04   -0.17649E-07   -0.22613E-09  1360   0.376E-05
   1 F= -.23376077E+04 E0= -.23376077E+04  d E =-.136764E-14
