 vasp.6.5.1 10Mar25 (build Apr  9 2026 21:39:28) complex                         
 executed on              LinuxNV date 2026.04.16  15:18:43
 running    4 mpi-ranks, with    1 threads/rank, on    1 nodes
 distrk:  each k-point on    4 cores,    1 groups
 distr:  one band on NCORE=   1 cores,    4 groups
 Offloading initialized ...    4 GPUs detected


--------------------------------------------------------------------------------------------------------


 INCAR:
   SYSTEM = Si_scaling
   ENCUT = 400
   EDIFF = 1E-6
   ISMEAR = 0
   SIGMA = 0.05
   ISYM = 0
   IBRION = -1
   NSW = 0
   NELM = 20
   NELMIN = 20
   LREAL = Auto
   NCORE = 1

 POTCAR:    PAW_PBE Si 05Jan2001                  
 POTCAR:    PAW_PBE Si 05Jan2001                  
   SHA256 =  79d9987ad8750f624c4d6acb2a16d13abf6a777132adc04dc6c8399be72b42bb Si/POTCAR             
   COPYR  = (c) Copyright 05Jan2001 Georg Kresse                                                    
   COPYR  = This file is part of the software VASP. Any use, copying, and all other rights are regul
   COPYR  = If you do not have a valid VASP license, you may not use, copy or distribute this file. 
   VRHFIN =Si: s2p2                                                                                 
   LEXCH  = PE                                                                                      
   EATOM  =   103.0669 eV,    7.5752 Ry                                                             
                                                                                                    
   TITEL  = PAW_PBE Si 05Jan2001                                                                    
   LULTRA =        F    use ultrasoft PP ?                                                          
   IUNSCR =        1    unscreen: 0-lin 1-nonlin 2-no                                               
   RPACOR =    1.500    partial core radius                                                         
   POMASS =   28.085; ZVAL   =    4.000    mass and valenz                                          
   RCORE  =    1.900    outmost cutoff radius                                                       
   RWIGS  =    2.480; RWIGS  =    1.312    wigner-seitz radius (au A)                               
   ENMAX  =  245.345; ENMIN  =  184.009 eV                                                          
   ICORE  =        2    local potential                                                             
   LCOR   =        T    correct aug charges                                                         
   LPAW   =        T    paw PP                                                                      
   EAUG   =  322.069                                                                                
   DEXC   =    0.000                                                                                
   RMAX   =    1.950    core radius for proj-oper                                                   
   RAUG   =    1.300    factor for augmentation sphere                                              
   RDEP   =    1.993    radius for radial grids                                                     
   RDEPT  =    1.837    core radius for aug-charge                                                  
                                                                                                    
   Atomic configuration                                                                             
    6 entries                                                                                       
     n  l   j            E        occ.                                                              
     1  0  0.50     -1785.8828   2.0000                                                             
     2  0  0.50      -139.4969   2.0000                                                             
     2  1  1.50       -95.5546   6.0000                                                             
     3  0  0.50       -10.8127   2.0000                                                             
     3  1  0.50        -4.0811   2.0000                                                             
     3  2  1.50        -4.0817   0.0000                                                             
   Description                                                                                      
     l       E           TYP  RCUT    TYP  RCUT                                                     
     0    -10.8127223     23  1.900                                                                 
     0     -7.6451159     23  1.900                                                                 
     1     -4.0811372     23  1.900                                                                 
     1      2.4879257     23  1.900                                                                 
     2     -4.0817478      7  1.900                                                                 
  local pseudopotential read in
  partial core-charges read in
  partial kinetic energy density read in
  atomic valenz-charges read in
  non local Contribution for L=            0  read in
    real space projection operators read in
  non local Contribution for L=            0  read in
    real space projection operators read in
  non local Contribution for L=            1  read in
    real space projection operators read in
  non local Contribution for L=            1  read in
    real space projection operators read in
    PAW grid and wavefunctions read in
 
   number of l-projection  operators is LMAX  =            4
   number of lm-projection operators is LMMAX =            8
 
 Optimization of the real space projectors (new method)

 maximal supplied QI-value         = 19.84
 optimisation between [QCUT,QGAM] = [ 10.12, 20.44] = [ 28.68,116.96] Ry 
 Optimized for a Real-space Cutoff    1.23 Angstroem

   l    n(q)    QCUT    max X(q) W(low)/X(q) W(high)/X(q)  e(spline) 
   0      7    10.119   159.560    0.56E-04    0.22E-03    0.45E-07
   0      7    10.119   115.863    0.56E-04    0.21E-03    0.45E-07
   1      7    10.119    88.339    0.34E-03    0.49E-03    0.11E-06
   1      7    10.119    48.592    0.33E-03    0.48E-03    0.11E-06
  PAW_PBE Si 05Jan2001                  :
 energy of atom  1       EATOM= -103.0669
 kinetic energy error for atom=    0.0012 (will be added to EATOM!!)
 
 
 POSCAR: Si 6x6x6 primitive supercell (432 atoms)
  positions in direct lattice
  velocities in cartesian coordinates
  No initial velocities read in


 exchange-correlation table for PE
   RHO(1)=    0.500       N(1)  =     2000
   RHO(2)=  100.500       N(2)  =     4000
 


--------------------------------------------------------------------------------------------------------


 ion  position               nearest neighbor table
   1  0.000  0.000  0.000-  12 2.35  62 2.35 362 2.35   2 2.35
   2  0.042  0.042  0.042-   3 2.35  13 2.35  73 2.35   1 2.35
   3  0.000  0.000  0.167-   2 2.35   4 2.35  64 2.35 364 2.35
   4  0.042  0.042  0.208-   3 2.35   5 2.35  15 2.35  75 2.35
   5  0.000  0.000  0.333-   4 2.35  66 2.35 366 2.35   6 2.35
   6  0.042  0.042  0.375-   7 2.35  17 2.35  77 2.35   5 2.35
   7  0.000  0.000  0.500-   6 2.35  68 2.35 368 2.35   8 2.35
   8  0.042  0.042  0.542-   9 2.35  19 2.35  79 2.35   7 2.35
   9  0.000  0.000  0.667-   8 2.35  10 2.35  70 2.35 370 2.35
  10  0.042  0.042  0.708-   9 2.35  11 2.35  21 2.35  81 2.35
  11  0.000  0.000  0.833-  10 2.35  72 2.35 372 2.35  12 2.35
  12  0.042  0.042  0.875-   1 2.35  23 2.35  83 2.35  11 2.35
  13  0.000  0.167  0.000-   2 2.35  14 2.35  24 2.35 374 2.35
  14  0.042  0.208  0.042-  13 2.35  15 2.35  25 2.35  85 2.35
  15  0.000  0.167  0.167-  16 2.35  14 2.35   4 2.35 376 2.35
  16  0.042  0.208  0.208-  15 2.35  17 2.35  27 2.35  87 2.35
  17  0.000  0.167  0.333-   6 2.35  16 2.35  18 2.35 378 2.35
  18  0.042  0.208  0.375-  17 2.35  19 2.35  29 2.35  89 2.35
  19  0.000  0.167  0.500-   8 2.35  18 2.35  20 2.35 380 2.35
  20  0.042  0.208  0.542-  19 2.35  21 2.35  31 2.35  91 2.35
  21  0.000  0.167  0.667-  22 2.35  20 2.35  10 2.35 382 2.35
  22  0.042  0.208  0.708-  21 2.35  23 2.35  33 2.35  93 2.35
  23  0.000  0.167  0.833-  12 2.35  22 2.35  24 2.35 384 2.35
  24  0.042  0.208  0.875-  13 2.35  23 2.35  35 2.35  95 2.35
  25  0.000  0.333  0.000-  14 2.35  36 2.35 386 2.35  26 2.35
  26  0.042  0.375  0.042-  27 2.35  37 2.35  97 2.35  25 2.35
  27  0.000  0.333  0.167-  16 2.35  26 2.35  28 2.35 388 2.35
  28  0.042  0.375  0.208-  27 2.35  29 2.35  39 2.35  99 2.35
  29  0.000  0.333  0.333-  18 2.35  28 2.35 390 2.35  30 2.35
  30  0.042  0.375  0.375-  31 2.35  41 2.35 101 2.35  29 2.35
  31  0.000  0.333  0.500-  20 2.35  30 2.35 392 2.35  32 2.35
  32  0.042  0.375  0.542-  33 2.35  43 2.35 103 2.35  31 2.35
  33  0.000  0.333  0.667-  22 2.35  32 2.35  34 2.35 394 2.35
  34  0.042  0.375  0.708-  33 2.35  35 2.35  45 2.35 105 2.35
  35  0.000  0.333  0.833-  24 2.35  34 2.35 396 2.35  36 2.35
  36  0.042  0.375  0.875-  25 2.35  47 2.35 107 2.35  35 2.35
  37  0.000  0.500  0.000-  26 2.35  48 2.35 398 2.35  38 2.35
  38  0.042  0.542  0.042-  39 2.35  49 2.35 109 2.35  37 2.35
  39  0.000  0.500  0.167-  28 2.35  38 2.35  40 2.35 400 2.35
  40  0.042  0.542  0.208-  39 2.35  41 2.35  51 2.35 111 2.35
  41  0.000  0.500  0.333-  30 2.35  40 2.35 402 2.35  42 2.35
  42  0.042  0.542  0.375-  43 2.35  53 2.35 113 2.35  41 2.35
  43  0.000  0.500  0.500-  32 2.35  42 2.35 404 2.35  44 2.35
  44  0.042  0.542  0.542-  45 2.35  55 2.35 115 2.35  43 2.35
  45  0.000  0.500  0.667-  34 2.35  44 2.35  46 2.35 406 2.35
  46  0.042  0.542  0.708-  45 2.35  47 2.35  57 2.35 117 2.35
  47  0.000  0.500  0.833-  36 2.35  46 2.35 408 2.35  48 2.35
  48  0.042  0.542  0.875-  37 2.35  59 2.35 119 2.35  47 2.35
  49  0.000  0.667  0.000-  38 2.35  50 2.35  60 2.35 410 2.35
  50  0.042  0.708  0.042-  49 2.35  51 2.35  61 2.35 121 2.35
  51  0.000  0.667  0.167-  52 2.35  50 2.35  40 2.35 412 2.35
  52  0.042  0.708  0.208-  51 2.35  53 2.35  63 2.35 123 2.35
  53  0.000  0.667  0.333-  42 2.35  52 2.35  54 2.35 414 2.35
  54  0.042  0.708  0.375-  53 2.35  55 2.35  65 2.35 125 2.35
  55  0.000  0.667  0.500-  44 2.35  54 2.35  56 2.35 416 2.35
  56  0.042  0.708  0.542-  55 2.35  57 2.35  67 2.35 127 2.35
  57  0.000  0.667  0.667-  58 2.35  56 2.35  46 2.35 418 2.35
  58  0.042  0.708  0.708-  57 2.35  59 2.35  69 2.35 129 2.35
  59  0.000  0.667  0.833-  48 2.35  58 2.35  60 2.35 420 2.35
  60  0.042  0.708  0.875-  49 2.35  59 2.35  71 2.35 131 2.35
  61  0.000  0.833  0.000-  50 2.35  72 2.35 422 2.35  62 2.35
  62  0.042  0.875  0.042-   1 2.35  63 2.35 133 2.35  61 2.35
  63  0.000  0.833  0.167-  52 2.35  62 2.35  64 2.35 424 2.35
  64  0.042  0.875  0.208-   3 2.35  63 2.35  65 2.35 135 2.35
  65  0.000  0.833  0.333-  54 2.35  64 2.35 426 2.35  66 2.35
  66  0.042  0.875  0.375-   5 2.35  67 2.35 137 2.35  65 2.35
  67  0.000  0.833  0.500-  56 2.35  66 2.35 428 2.35  68 2.35
  68  0.042  0.875  0.542-   7 2.35  69 2.35 139 2.35  67 2.35
  69  0.000  0.833  0.667-  58 2.35  68 2.35  70 2.35 430 2.35
  70  0.042  0.875  0.708-   9 2.35  69 2.35  71 2.35 141 2.35
  71  0.000  0.833  0.833-  60 2.35  70 2.35 432 2.35  72 2.35
  72  0.042  0.875  0.875-  11 2.35  61 2.35 143 2.35  71 2.35
  73  0.167  0.000  0.000-   2 2.35  74 2.35  84 2.35 134 2.35
  74  0.208  0.042  0.042-  73 2.35  75 2.35  85 2.35 145 2.35
  75  0.167  0.000  0.167-  76 2.35  74 2.35   4 2.35 136 2.35
  76  0.208  0.042  0.208-  75 2.35  77 2.35 147 2.35  87 2.35
  77  0.167  0.000  0.333-   6 2.35  76 2.35  78 2.35 138 2.35
  78  0.208  0.042  0.375-  77 2.35  79 2.35  89 2.35 149 2.35
  79  0.167  0.000  0.500-   8 2.35  78 2.35  80 2.35 140 2.35
  80  0.208  0.042  0.542-  79 2.35  81 2.35  91 2.35 151 2.35
  81  0.167  0.000  0.667-  82 2.35  80 2.35  10 2.35 142 2.35
  82  0.208  0.042  0.708-  81 2.35  83 2.35 153 2.35  93 2.35
  83  0.167  0.000  0.833-  12 2.35  82 2.35  84 2.35 144 2.35
  84  0.208  0.042  0.875-  73 2.35  83 2.35  95 2.35 155 2.35
  85  0.167  0.167  0.000-  86 2.35  74 2.35  14 2.35  96 2.35
  86  0.208  0.208  0.042-  85 2.35  97 2.35 157 2.35  87 2.35
  87  0.167  0.167  0.167-  88 2.35  76 2.35  86 2.35  16 2.35
  88  0.208  0.208  0.208-  87 2.35  89 2.35  99 2.35 159 2.35
  89  0.167  0.167  0.333-  90 2.35  78 2.35  18 2.35  88 2.35
  90  0.208  0.208  0.375-  89 2.35 101 2.35 161 2.35  91 2.35
  91  0.167  0.167  0.500-  92 2.35  80 2.35  20 2.35  90 2.35
  92  0.208  0.208  0.542-  91 2.35 103 2.35 163 2.35  93 2.35
  93  0.167  0.167  0.667-  94 2.35  82 2.35  92 2.35  22 2.35
  94  0.208  0.208  0.708-  93 2.35  95 2.35 105 2.35 165 2.35
  95  0.167  0.167  0.833-  96 2.35  84 2.35  24 2.35  94 2.35
  96  0.208  0.208  0.875-  95 2.35 107 2.35 167 2.35  85 2.35
  97  0.167  0.333  0.000-  26 2.35  86 2.35  98 2.35 108 2.35
  98  0.208  0.375  0.042-  97 2.35  99 2.35 109 2.35 169 2.35
  99  0.167  0.333  0.167- 100 2.35  98 2.35  28 2.35  88 2.35
 100  0.208  0.375  0.208-  99 2.35 101 2.35 171 2.35 111 2.35
 101  0.167  0.333  0.333-  30 2.35  90 2.35 100 2.35 102 2.35
 102  0.208  0.375  0.375- 101 2.35 103 2.35 113 2.35 173 2.35
 103  0.167  0.333  0.500-  32 2.35  92 2.35 102 2.35 104 2.35
 104  0.208  0.375  0.542- 103 2.35 105 2.35 115 2.35 175 2.35
 105  0.167  0.333  0.667- 106 2.35 104 2.35  34 2.35  94 2.35
 106  0.208  0.375  0.708- 105 2.35 107 2.35 177 2.35 117 2.35
 107  0.167  0.333  0.833-  36 2.35  96 2.35 106 2.35 108 2.35
 108  0.208  0.375  0.875-  97 2.35 107 2.35 119 2.35 179 2.35
 109  0.167  0.500  0.000-  38 2.35  98 2.35 110 2.35 120 2.35
 110  0.208  0.542  0.042- 109 2.35 111 2.35 121 2.35 181 2.35
 111  0.167  0.500  0.167- 112 2.35 110 2.35  40 2.35 100 2.35
 112  0.208  0.542  0.208- 111 2.35 113 2.35 183 2.35 123 2.35
 113  0.167  0.500  0.333-  42 2.35 102 2.35 112 2.35 114 2.35
 114  0.208  0.542  0.375- 113 2.35 115 2.35 125 2.35 185 2.35
 115  0.167  0.500  0.500-  44 2.35 104 2.35 114 2.35 116 2.35
 116  0.208  0.542  0.542- 115 2.35 117 2.35 127 2.35 187 2.35
 117  0.167  0.500  0.667- 118 2.35 116 2.35  46 2.35 106 2.35
 118  0.208  0.542  0.708- 117 2.35 119 2.35 189 2.35 129 2.35
 119  0.167  0.500  0.833-  48 2.35 108 2.35 118 2.35 120 2.35
 120  0.208  0.542  0.875- 109 2.35 119 2.35 131 2.35 191 2.35
 121  0.167  0.667  0.000- 122 2.35 110 2.35  50 2.35 132 2.35
 122  0.208  0.708  0.042- 121 2.35 133 2.35 193 2.35 123 2.35
 123  0.167  0.667  0.167- 124 2.35 112 2.35 122 2.35  52 2.35
 124  0.208  0.708  0.208- 123 2.35 125 2.35 135 2.35 195 2.35
 125  0.167  0.667  0.333- 126 2.35 114 2.35  54 2.35 124 2.35
 126  0.208  0.708  0.375- 125 2.35 137 2.35 197 2.35 127 2.35
 127  0.167  0.667  0.500- 128 2.35 116 2.35  56 2.35 126 2.35
 128  0.208  0.708  0.542- 127 2.35 139 2.35 199 2.35 129 2.35
 129  0.167  0.667  0.667- 130 2.35 118 2.35 128 2.35  58 2.35
 130  0.208  0.708  0.708- 129 2.35 131 2.35 141 2.35 201 2.35
 131  0.167  0.667  0.833- 132 2.35 120 2.35  60 2.35 130 2.35
 132  0.208  0.708  0.875- 131 2.35 143 2.35 203 2.35 121 2.35
 133  0.167  0.833  0.000-  62 2.35 122 2.35 134 2.35 144 2.35
 134  0.208  0.875  0.042-  73 2.35 133 2.35 135 2.35 205 2.35
 135  0.167  0.833  0.167- 136 2.35 134 2.35  64 2.35 124 2.35
 136  0.208  0.875  0.208- 135 2.35 137 2.35 207 2.35  75 2.35
 137  0.167  0.833  0.333-  66 2.35 126 2.35 136 2.35 138 2.35
 138  0.208  0.875  0.375-  77 2.35 137 2.35 139 2.35 209 2.35
 139  0.167  0.833  0.500-  68 2.35 128 2.35 138 2.35 140 2.35
 140  0.208  0.875  0.542-  79 2.35 139 2.35 141 2.35 211 2.35
 141  0.167  0.833  0.667- 142 2.35 140 2.35  70 2.35 130 2.35
 142  0.208  0.875  0.708- 141 2.35 143 2.35 213 2.35  81 2.35
 143  0.167  0.833  0.833-  72 2.35 132 2.35 142 2.35 144 2.35
 144  0.208  0.875  0.875-  83 2.35 133 2.35 143 2.35 215 2.35
 145  0.333  0.000  0.000-  74 2.35 156 2.35 206 2.35 146 2.35
 146  0.375  0.042  0.042- 147 2.35 157 2.35 217 2.35 145 2.35
 147  0.333  0.000  0.167-  76 2.35 146 2.35 148 2.35 208 2.35
 148  0.375  0.042  0.208- 147 2.35 149 2.35 159 2.35 219 2.35
 149  0.333  0.000  0.333-  78 2.35 148 2.35 210 2.35 150 2.35
 150  0.375  0.042  0.375- 151 2.35 161 2.35 221 2.35 149 2.35
 151  0.333  0.000  0.500-  80 2.35 150 2.35 212 2.35 152 2.35
 152  0.375  0.042  0.542- 153 2.35 163 2.35 223 2.35 151 2.35
 153  0.333  0.000  0.667-  82 2.35 152 2.35 154 2.35 214 2.35
 154  0.375  0.042  0.708- 153 2.35 155 2.35 165 2.35 225 2.35
 155  0.333  0.000  0.833-  84 2.35 154 2.35 216 2.35 156 2.35
 156  0.375  0.042  0.875- 145 2.35 167 2.35 227 2.35 155 2.35
 157  0.333  0.167  0.000-  86 2.35 146 2.35 158 2.35 168 2.35
 158  0.375  0.208  0.042- 157 2.35 159 2.35 169 2.35 229 2.35
 159  0.333  0.167  0.167- 160 2.35 158 2.35 148 2.35  88 2.35
 160  0.375  0.208  0.208- 159 2.35 161 2.35 171 2.35 231 2.35
 161  0.333  0.167  0.333-  90 2.35 150 2.35 160 2.35 162 2.35
 162  0.375  0.208  0.375- 161 2.35 163 2.35 173 2.35 233 2.35
 163  0.333  0.167  0.500-  92 2.35 152 2.35 162 2.35 164 2.35
 164  0.375  0.208  0.542- 163 2.35 165 2.35 175 2.35 235 2.35
 165  0.333  0.167  0.667- 166 2.35 164 2.35 154 2.35  94 2.35
 166  0.375  0.208  0.708- 165 2.35 167 2.35 177 2.35 237 2.35
 167  0.333  0.167  0.833-  96 2.35 156 2.35 166 2.35 168 2.35
 168  0.375  0.208  0.875- 157 2.35 167 2.35 179 2.35 239 2.35
 169  0.333  0.333  0.000-  98 2.35 158 2.35 180 2.35 170 2.35
 170  0.375  0.375  0.042- 171 2.35 181 2.35 241 2.35 169 2.35
 171  0.333  0.333  0.167- 100 2.35 160 2.35 170 2.35 172 2.35
 172  0.375  0.375  0.208- 171 2.35 173 2.35 183 2.35 243 2.35
 173  0.333  0.333  0.333- 102 2.35 162 2.35 172 2.35 174 2.35
 174  0.375  0.375  0.375- 175 2.35 185 2.35 245 2.35 173 2.35
 175  0.333  0.333  0.500- 104 2.35 164 2.35 174 2.35 176 2.35
 176  0.375  0.375  0.542- 177 2.35 187 2.35 247 2.35 175 2.35
 177  0.333  0.333  0.667- 106 2.35 166 2.35 176 2.35 178 2.35
 178  0.375  0.375  0.708- 177 2.35 179 2.35 189 2.35 249 2.35
 179  0.333  0.333  0.833- 108 2.35 168 2.35 178 2.35 180 2.35
 180  0.375  0.375  0.875- 169 2.35 191 2.35 251 2.35 179 2.35
 181  0.333  0.500  0.000- 110 2.35 170 2.35 192 2.35 182 2.35
 182  0.375  0.542  0.042- 183 2.35 193 2.35 253 2.35 181 2.35
 183  0.333  0.500  0.167- 112 2.35 172 2.35 182 2.35 184 2.35
 184  0.375  0.542  0.208- 183 2.35 185 2.35 195 2.35 255 2.35
 185  0.333  0.500  0.333- 114 2.35 174 2.35 184 2.35 186 2.35
 186  0.375  0.542  0.375- 187 2.35 197 2.35 257 2.35 185 2.35
 187  0.333  0.500  0.500- 116 2.35 176 2.35 186 2.35 188 2.35
 188  0.375  0.542  0.542- 189 2.35 199 2.35 259 2.35 187 2.35
 189  0.333  0.500  0.667- 118 2.35 178 2.35 188 2.35 190 2.35
 190  0.375  0.542  0.708- 189 2.35 191 2.35 201 2.35 261 2.35
 191  0.333  0.500  0.833- 120 2.35 180 2.35 190 2.35 192 2.35
 192  0.375  0.542  0.875- 181 2.35 203 2.35 263 2.35 191 2.35
 193  0.333  0.667  0.000- 122 2.35 182 2.35 194 2.35 204 2.35
 194  0.375  0.708  0.042- 193 2.35 195 2.35 205 2.35 265 2.35
 195  0.333  0.667  0.167- 196 2.35 194 2.35 184 2.35 124 2.35
 196  0.375  0.708  0.208- 195 2.35 197 2.35 207 2.35 267 2.35
 197  0.333  0.667  0.333- 126 2.35 186 2.35 196 2.35 198 2.35
 198  0.375  0.708  0.375- 197 2.35 199 2.35 209 2.35 269 2.35
 199  0.333  0.667  0.500- 128 2.35 188 2.35 198 2.35 200 2.35
 200  0.375  0.708  0.542- 199 2.35 201 2.35 211 2.35 271 2.35
 201  0.333  0.667  0.667- 202 2.35 200 2.35 190 2.35 130 2.35
 202  0.375  0.708  0.708- 201 2.35 203 2.35 213 2.35 273 2.35
 203  0.333  0.667  0.833- 132 2.35 192 2.35 202 2.35 204 2.35
 204  0.375  0.708  0.875- 193 2.35 203 2.35 215 2.35 275 2.35
 205  0.333  0.833  0.000- 134 2.35 194 2.35 216 2.35 206 2.35
 206  0.375  0.875  0.042- 145 2.35 207 2.35 277 2.35 205 2.35
 207  0.333  0.833  0.167- 136 2.35 196 2.35 206 2.35 208 2.35
 208  0.375  0.875  0.208- 147 2.35 207 2.35 209 2.35 279 2.35
 209  0.333  0.833  0.333- 138 2.35 198 2.35 208 2.35 210 2.35
 210  0.375  0.875  0.375- 149 2.35 211 2.35 281 2.35 209 2.35
 211  0.333  0.833  0.500- 140 2.35 200 2.35 210 2.35 212 2.35
 212  0.375  0.875  0.542- 151 2.35 213 2.35 283 2.35 211 2.35
 213  0.333  0.833  0.667- 142 2.35 202 2.35 212 2.35 214 2.35
 214  0.375  0.875  0.708- 153 2.35 213 2.35 215 2.35 285 2.35
 215  0.333  0.833  0.833- 144 2.35 204 2.35 214 2.35 216 2.35
 216  0.375  0.875  0.875- 155 2.35 205 2.35 287 2.35 215 2.35
 217  0.500  0.000  0.000- 146 2.35 228 2.35 278 2.35 218 2.35
 218  0.542  0.042  0.042- 219 2.35 229 2.35 289 2.35 217 2.35
 219  0.500  0.000  0.167- 148 2.35 218 2.35 220 2.35 280 2.35
 220  0.542  0.042  0.208- 219 2.35 221 2.35 231 2.35 291 2.35
 221  0.500  0.000  0.333- 150 2.35 220 2.35 282 2.35 222 2.35
 222  0.542  0.042  0.375- 223 2.35 233 2.35 293 2.35 221 2.35
 223  0.500  0.000  0.500- 152 2.35 222 2.35 284 2.35 224 2.35
 224  0.542  0.042  0.542- 225 2.35 235 2.35 295 2.35 223 2.35
 225  0.500  0.000  0.667- 154 2.35 224 2.35 226 2.35 286 2.35
 226  0.542  0.042  0.708- 225 2.35 227 2.35 237 2.35 297 2.35
 227  0.500  0.000  0.833- 156 2.35 226 2.35 288 2.35 228 2.35
 228  0.542  0.042  0.875- 217 2.35 239 2.35 299 2.35 227 2.35
 229  0.500  0.167  0.000- 158 2.35 218 2.35 230 2.35 240 2.35
 230  0.542  0.208  0.042- 229 2.35 231 2.35 241 2.35 301 2.35
 231  0.500  0.167  0.167- 232 2.35 230 2.35 220 2.35 160 2.35
 232  0.542  0.208  0.208- 231 2.35 233 2.35 243 2.35 303 2.35
 233  0.500  0.167  0.333- 162 2.35 222 2.35 232 2.35 234 2.35
 234  0.542  0.208  0.375- 233 2.35 235 2.35 245 2.35 305 2.35
 235  0.500  0.167  0.500- 164 2.35 224 2.35 234 2.35 236 2.35
 236  0.542  0.208  0.542- 235 2.35 237 2.35 247 2.35 307 2.35
 237  0.500  0.167  0.667- 238 2.35 236 2.35 226 2.35 166 2.35
 238  0.542  0.208  0.708- 237 2.35 239 2.35 249 2.35 309 2.35
 239  0.500  0.167  0.833- 168 2.35 228 2.35 238 2.35 240 2.35
 240  0.542  0.208  0.875- 229 2.35 239 2.35 251 2.35 311 2.35
 241  0.500  0.333  0.000- 170 2.35 230 2.35 252 2.35 242 2.35
 242  0.542  0.375  0.042- 243 2.35 253 2.35 313 2.35 241 2.35
 243  0.500  0.333  0.167- 172 2.35 232 2.35 242 2.35 244 2.35
 244  0.542  0.375  0.208- 243 2.35 245 2.35 255 2.35 315 2.35
 245  0.500  0.333  0.333- 174 2.35 234 2.35 244 2.35 246 2.35
 246  0.542  0.375  0.375- 247 2.35 257 2.35 317 2.35 245 2.35
 247  0.500  0.333  0.500- 176 2.35 236 2.35 246 2.35 248 2.35
 248  0.542  0.375  0.542- 249 2.35 259 2.35 319 2.35 247 2.35
 249  0.500  0.333  0.667- 178 2.35 238 2.35 248 2.35 250 2.35
 250  0.542  0.375  0.708- 249 2.35 251 2.35 261 2.35 321 2.35
 251  0.500  0.333  0.833- 180 2.35 240 2.35 250 2.35 252 2.35
 252  0.542  0.375  0.875- 241 2.35 263 2.35 323 2.35 251 2.35
 253  0.500  0.500  0.000- 182 2.35 242 2.35 264 2.35 254 2.35
 254  0.542  0.542  0.042- 255 2.35 265 2.35 325 2.35 253 2.35
 255  0.500  0.500  0.167- 184 2.35 244 2.35 254 2.35 256 2.35
 256  0.542  0.542  0.208- 255 2.35 257 2.35 267 2.35 327 2.35
 257  0.500  0.500  0.333- 186 2.35 246 2.35 256 2.35 258 2.35
 258  0.542  0.542  0.375- 259 2.35 269 2.35 329 2.35 257 2.35
 259  0.500  0.500  0.500- 188 2.35 248 2.35 258 2.35 260 2.35
 260  0.542  0.542  0.542- 261 2.35 271 2.35 331 2.35 259 2.35
 261  0.500  0.500  0.667- 190 2.35 250 2.35 260 2.35 262 2.35
 262  0.542  0.542  0.708- 261 2.35 263 2.35 273 2.35 333 2.35
 263  0.500  0.500  0.833- 192 2.35 252 2.35 262 2.35 264 2.35
 264  0.542  0.542  0.875- 253 2.35 275 2.35 335 2.35 263 2.35
 265  0.500  0.667  0.000- 194 2.35 254 2.35 266 2.35 276 2.35
 266  0.542  0.708  0.042- 265 2.35 267 2.35 277 2.35 337 2.35
 267  0.500  0.667  0.167- 268 2.35 266 2.35 256 2.35 196 2.35
 268  0.542  0.708  0.208- 267 2.35 269 2.35 279 2.35 339 2.35
 269  0.500  0.667  0.333- 198 2.35 258 2.35 268 2.35 270 2.35
 270  0.542  0.708  0.375- 269 2.35 271 2.35 281 2.35 341 2.35
 271  0.500  0.667  0.500- 200 2.35 260 2.35 270 2.35 272 2.35
 272  0.542  0.708  0.542- 271 2.35 273 2.35 283 2.35 343 2.35
 273  0.500  0.667  0.667- 274 2.35 272 2.35 262 2.35 202 2.35
 274  0.542  0.708  0.708- 273 2.35 275 2.35 285 2.35 345 2.35
 275  0.500  0.667  0.833- 204 2.35 264 2.35 274 2.35 276 2.35
 276  0.542  0.708  0.875- 265 2.35 275 2.35 287 2.35 347 2.35
 277  0.500  0.833  0.000- 206 2.35 266 2.35 288 2.35 278 2.35
 278  0.542  0.875  0.042- 217 2.35 279 2.35 349 2.35 277 2.35
 279  0.500  0.833  0.167- 208 2.35 268 2.35 278 2.35 280 2.35
 280  0.542  0.875  0.208- 219 2.35 279 2.35 281 2.35 351 2.35
 281  0.500  0.833  0.333- 210 2.35 270 2.35 280 2.35 282 2.35
 282  0.542  0.875  0.375- 221 2.35 283 2.35 353 2.35 281 2.35
 283  0.500  0.833  0.500- 212 2.35 272 2.35 282 2.35 284 2.35
 284  0.542  0.875  0.542- 223 2.35 285 2.35 355 2.35 283 2.35
 285  0.500  0.833  0.667- 214 2.35 274 2.35 284 2.35 286 2.35
 286  0.542  0.875  0.708- 225 2.35 285 2.35 287 2.35 357 2.35
 287  0.500  0.833  0.833- 216 2.35 276 2.35 286 2.35 288 2.35
 288  0.542  0.875  0.875- 227 2.35 277 2.35 359 2.35 287 2.35
 289  0.667  0.000  0.000- 218 2.35 290 2.35 300 2.35 350 2.35
 290  0.708  0.042  0.042- 289 2.35 291 2.35 301 2.35 361 2.35
 291  0.667  0.000  0.167- 292 2.35 290 2.35 220 2.35 352 2.35
 292  0.708  0.042  0.208- 291 2.35 293 2.35 363 2.35 303 2.35
 293  0.667  0.000  0.333- 222 2.35 292 2.35 294 2.35 354 2.35
 294  0.708  0.042  0.375- 293 2.35 295 2.35 305 2.35 365 2.35
 295  0.667  0.000  0.500- 224 2.35 294 2.35 296 2.35 356 2.35
 296  0.708  0.042  0.542- 295 2.35 297 2.35 307 2.35 367 2.35
 297  0.667  0.000  0.667- 298 2.35 296 2.35 226 2.35 358 2.35
 298  0.708  0.042  0.708- 297 2.35 299 2.35 369 2.35 309 2.35
 299  0.667  0.000  0.833- 228 2.35 298 2.35 300 2.35 360 2.35
 300  0.708  0.042  0.875- 289 2.35 299 2.35 311 2.35 371 2.35
 301  0.667  0.167  0.000- 302 2.35 290 2.35 230 2.35 312 2.35
 302  0.708  0.208  0.042- 301 2.35 313 2.35 373 2.35 303 2.35
 303  0.667  0.167  0.167- 304 2.35 292 2.35 302 2.35 232 2.35
 304  0.708  0.208  0.208- 303 2.35 305 2.35 315 2.35 375 2.35
 305  0.667  0.167  0.333- 306 2.35 294 2.35 234 2.35 304 2.35
 306  0.708  0.208  0.375- 305 2.35 317 2.35 377 2.35 307 2.35
 307  0.667  0.167  0.500- 308 2.35 296 2.35 236 2.35 306 2.35
 308  0.708  0.208  0.542- 307 2.35 319 2.35 379 2.35 309 2.35
 309  0.667  0.167  0.667- 310 2.35 298 2.35 308 2.35 238 2.35
 310  0.708  0.208  0.708- 309 2.35 311 2.35 321 2.35 381 2.35
 311  0.667  0.167  0.833- 312 2.35 300 2.35 240 2.35 310 2.35
 312  0.708  0.208  0.875- 311 2.35 323 2.35 383 2.35 301 2.35
 313  0.667  0.333  0.000- 242 2.35 302 2.35 314 2.35 324 2.35
 314  0.708  0.375  0.042- 313 2.35 315 2.35 325 2.35 385 2.35
 315  0.667  0.333  0.167- 316 2.35 314 2.35 244 2.35 304 2.35
 316  0.708  0.375  0.208- 315 2.35 317 2.35 387 2.35 327 2.35
 317  0.667  0.333  0.333- 246 2.35 306 2.35 316 2.35 318 2.35
 318  0.708  0.375  0.375- 317 2.35 319 2.35 329 2.35 389 2.35
 319  0.667  0.333  0.500- 248 2.35 308 2.35 318 2.35 320 2.35
 320  0.708  0.375  0.542- 319 2.35 321 2.35 331 2.35 391 2.35
 321  0.667  0.333  0.667- 322 2.35 320 2.35 250 2.35 310 2.35
 322  0.708  0.375  0.708- 321 2.35 323 2.35 393 2.35 333 2.35
 323  0.667  0.333  0.833- 252 2.35 312 2.35 322 2.35 324 2.35
 324  0.708  0.375  0.875- 313 2.35 323 2.35 335 2.35 395 2.35
 325  0.667  0.500  0.000- 254 2.35 314 2.35 326 2.35 336 2.35
 326  0.708  0.542  0.042- 325 2.35 327 2.35 337 2.35 397 2.35
 327  0.667  0.500  0.167- 328 2.35 326 2.35 256 2.35 316 2.35
 328  0.708  0.542  0.208- 327 2.35 329 2.35 399 2.35 339 2.35
 329  0.667  0.500  0.333- 258 2.35 318 2.35 328 2.35 330 2.35
 330  0.708  0.542  0.375- 329 2.35 331 2.35 341 2.35 401 2.35
 331  0.667  0.500  0.500- 260 2.35 320 2.35 330 2.35 332 2.35
 332  0.708  0.542  0.542- 331 2.35 333 2.35 343 2.35 403 2.35
 333  0.667  0.500  0.667- 334 2.35 332 2.35 262 2.35 322 2.35
 334  0.708  0.542  0.708- 333 2.35 335 2.35 405 2.35 345 2.35
 335  0.667  0.500  0.833- 264 2.35 324 2.35 334 2.35 336 2.35
 336  0.708  0.542  0.875- 325 2.35 335 2.35 347 2.35 407 2.35
 337  0.667  0.667  0.000- 338 2.35 326 2.35 266 2.35 348 2.35
 338  0.708  0.708  0.042- 337 2.35 349 2.35 409 2.35 339 2.35
 339  0.667  0.667  0.167- 340 2.35 328 2.35 338 2.35 268 2.35
 340  0.708  0.708  0.208- 339 2.35 341 2.35 351 2.35 411 2.35
 341  0.667  0.667  0.333- 342 2.35 330 2.35 270 2.35 340 2.35
 342  0.708  0.708  0.375- 341 2.35 353 2.35 413 2.35 343 2.35
 343  0.667  0.667  0.500- 344 2.35 332 2.35 272 2.35 342 2.35
 344  0.708  0.708  0.542- 343 2.35 355 2.35 415 2.35 345 2.35
 345  0.667  0.667  0.667- 346 2.35 334 2.35 344 2.35 274 2.35
 346  0.708  0.708  0.708- 345 2.35 347 2.35 357 2.35 417 2.35
 347  0.667  0.667  0.833- 348 2.35 336 2.35 276 2.35 346 2.35
 348  0.708  0.708  0.875- 347 2.35 359 2.35 419 2.35 337 2.35
 349  0.667  0.833  0.000- 278 2.35 338 2.35 350 2.35 360 2.35
 350  0.708  0.875  0.042- 289 2.35 349 2.35 351 2.35 421 2.35
 351  0.667  0.833  0.167- 352 2.35 350 2.35 280 2.35 340 2.35
 352  0.708  0.875  0.208- 351 2.35 353 2.35 423 2.35 291 2.35
 353  0.667  0.833  0.333- 282 2.35 342 2.35 352 2.35 354 2.35
 354  0.708  0.875  0.375- 293 2.35 353 2.35 355 2.35 425 2.35
 355  0.667  0.833  0.500- 284 2.35 344 2.35 354 2.35 356 2.35
 356  0.708  0.875  0.542- 295 2.35 355 2.35 357 2.35 427 2.35
 357  0.667  0.833  0.667- 358 2.35 356 2.35 286 2.35 346 2.35
 358  0.708  0.875  0.708- 357 2.35 359 2.35 429 2.35 297 2.35
 359  0.667  0.833  0.833- 288 2.35 348 2.35 358 2.35 360 2.35
 360  0.708  0.875  0.875- 299 2.35 349 2.35 359 2.35 431 2.35
 361  0.833  0.000  0.000- 290 2.35 372 2.35 422 2.35 362 2.35
 362  0.875  0.042  0.042-   1 2.35 363 2.35 373 2.35 361 2.35
 363  0.833  0.000  0.167- 292 2.35 362 2.35 364 2.35 424 2.35
 364  0.875  0.042  0.208-   3 2.35 363 2.35 365 2.35 375 2.35
 365  0.833  0.000  0.333- 294 2.35 364 2.35 426 2.35 366 2.35
 366  0.875  0.042  0.375-   5 2.35 367 2.35 377 2.35 365 2.35
 367  0.833  0.000  0.500- 296 2.35 366 2.35 428 2.35 368 2.35
 368  0.875  0.042  0.542-   7 2.35 369 2.35 379 2.35 367 2.35
 369  0.833  0.000  0.667- 298 2.35 368 2.35 370 2.35 430 2.35
 370  0.875  0.042  0.708-   9 2.35 369 2.35 371 2.35 381 2.35
 371  0.833  0.000  0.833- 300 2.35 370 2.35 432 2.35 372 2.35
 372  0.875  0.042  0.875-  11 2.35 361 2.35 383 2.35 371 2.35
 373  0.833  0.167  0.000- 302 2.35 362 2.35 374 2.35 384 2.35
 374  0.875  0.208  0.042-  13 2.35 373 2.35 375 2.35 385 2.35
 375  0.833  0.167  0.167- 376 2.35 374 2.35 364 2.35 304 2.35
 376  0.875  0.208  0.208- 375 2.35 377 2.35 387 2.35  15 2.35
 377  0.833  0.167  0.333- 306 2.35 366 2.35 376 2.35 378 2.35
 378  0.875  0.208  0.375-  17 2.35 377 2.35 379 2.35 389 2.35
 379  0.833  0.167  0.500- 308 2.35 368 2.35 378 2.35 380 2.35
 380  0.875  0.208  0.542-  19 2.35 379 2.35 381 2.35 391 2.35
 381  0.833  0.167  0.667- 382 2.35 380 2.35 370 2.35 310 2.35
 382  0.875  0.208  0.708- 381 2.35 383 2.35 393 2.35  21 2.35
 383  0.833  0.167  0.833- 312 2.35 372 2.35 382 2.35 384 2.35
 384  0.875  0.208  0.875-  23 2.35 373 2.35 383 2.35 395 2.35
 385  0.833  0.333  0.000- 314 2.35 374 2.35 396 2.35 386 2.35
 386  0.875  0.375  0.042-  25 2.35 387 2.35 397 2.35 385 2.35
 387  0.833  0.333  0.167- 316 2.35 376 2.35 386 2.35 388 2.35
 388  0.875  0.375  0.208-  27 2.35 387 2.35 389 2.35 399 2.35
 389  0.833  0.333  0.333- 318 2.35 378 2.35 388 2.35 390 2.35
 390  0.875  0.375  0.375-  29 2.35 391 2.35 401 2.35 389 2.35
 391  0.833  0.333  0.500- 320 2.35 380 2.35 390 2.35 392 2.35
 392  0.875  0.375  0.542-  31 2.35 393 2.35 403 2.35 391 2.35
 393  0.833  0.333  0.667- 322 2.35 382 2.35 392 2.35 394 2.35
 394  0.875  0.375  0.708-  33 2.35 393 2.35 395 2.35 405 2.35
 395  0.833  0.333  0.833- 324 2.35 384 2.35 394 2.35 396 2.35
 396  0.875  0.375  0.875-  35 2.35 385 2.35 407 2.35 395 2.35
 397  0.833  0.500  0.000- 326 2.35 386 2.35 408 2.35 398 2.35
 398  0.875  0.542  0.042-  37 2.35 399 2.35 409 2.35 397 2.35
 399  0.833  0.500  0.167- 328 2.35 388 2.35 398 2.35 400 2.35
 400  0.875  0.542  0.208-  39 2.35 399 2.35 401 2.35 411 2.35
 401  0.833  0.500  0.333- 330 2.35 390 2.35 400 2.35 402 2.35
 402  0.875  0.542  0.375-  41 2.35 403 2.35 413 2.35 401 2.35
 403  0.833  0.500  0.500- 332 2.35 392 2.35 402 2.35 404 2.35
 404  0.875  0.542  0.542-  43 2.35 405 2.35 415 2.35 403 2.35
 405  0.833  0.500  0.667- 334 2.35 394 2.35 404 2.35 406 2.35
 406  0.875  0.542  0.708-  45 2.35 405 2.35 407 2.35 417 2.35
 407  0.833  0.500  0.833- 336 2.35 396 2.35 406 2.35 408 2.35
 408  0.875  0.542  0.875-  47 2.35 397 2.35 419 2.35 407 2.35
 409  0.833  0.667  0.000- 338 2.35 398 2.35 410 2.35 420 2.35
 410  0.875  0.708  0.042-  49 2.35 409 2.35 411 2.35 421 2.35
 411  0.833  0.667  0.167- 412 2.35 410 2.35 400 2.35 340 2.35
 412  0.875  0.708  0.208- 411 2.35 413 2.35 423 2.35  51 2.35
 413  0.833  0.667  0.333- 342 2.35 402 2.35 412 2.35 414 2.35
 414  0.875  0.708  0.375-  53 2.35 413 2.35 415 2.35 425 2.35
 415  0.833  0.667  0.500- 344 2.35 404 2.35 414 2.35 416 2.35
 416  0.875  0.708  0.542-  55 2.35 415 2.35 417 2.35 427 2.35
 417  0.833  0.667  0.667- 418 2.35 416 2.35 406 2.35 346 2.35
 418  0.875  0.708  0.708- 417 2.35 419 2.35 429 2.35  57 2.35
 419  0.833  0.667  0.833- 348 2.35 408 2.35 418 2.35 420 2.35
 420  0.875  0.708  0.875-  59 2.35 409 2.35 419 2.35 431 2.35
 421  0.833  0.833  0.000- 350 2.35 410 2.35 432 2.35 422 2.35
 422  0.875  0.875  0.042-  61 2.35 361 2.35 423 2.35 421 2.35
 423  0.833  0.833  0.167- 352 2.35 412 2.35 422 2.35 424 2.35
 424  0.875  0.875  0.208-  63 2.35 363 2.35 423 2.35 425 2.35
 425  0.833  0.833  0.333- 354 2.35 414 2.35 424 2.35 426 2.35
 426  0.875  0.875  0.375-  65 2.35 365 2.35 427 2.35 425 2.35
 427  0.833  0.833  0.500- 356 2.35 416 2.35 426 2.35 428 2.35
 428  0.875  0.875  0.542-  67 2.35 367 2.35 429 2.35 427 2.35
 429  0.833  0.833  0.667- 358 2.35 418 2.35 428 2.35 430 2.35
 430  0.875  0.875  0.708-  69 2.35 369 2.35 429 2.35 431 2.35
 431  0.833  0.833  0.833- 360 2.35 420 2.35 430 2.35 432 2.35
 432  0.875  0.875  0.875-  71 2.35 371 2.35 421 2.35 431 2.35
 

IMPORTANT INFORMATION: All symmetrisations will be switched off!
NOSYMM: (Re-)initialisation of all symmetry stuff for point group C_1.


----------------------------------------------------------------------------------------

                                     Primitive cell                                     

  volume of cell :    8645.5624

  direct lattice vectors                    reciprocal lattice vectors
    16.290000000 16.290000000  0.000000000     0.030693677  0.030693677 -0.030693677
     0.000000000 16.290000000 16.290000000    -0.030693677  0.030693677  0.030693677
    16.290000000  0.000000000 16.290000000     0.030693677 -0.030693677  0.030693677

  length of vectors
    23.037538931 23.037538931 23.037538931     0.053163008  0.053163008  0.053163008

  position of ions in fractional coordinates (direct lattice)
     0.000000000  0.000000000  0.000000000
     0.041667000  0.041667000  0.041667000
     0.000000000  1.000000000  0.166667000
     0.041667000  0.041667000  0.208333000
     0.000000000  1.000000000  0.333333000
     0.041667000  0.041667000  0.375000000
     0.000000000  1.000000000  0.500000000
     0.041667000  0.041667000  0.541667000
     0.000000000  1.000000000  0.666667000
     0.041667000  0.041667000  0.708333000
     0.000000000  1.000000000  0.833333000
     0.041667000  0.041667000  0.875000000
     0.000000000  0.166667000  1.000000000
     0.041667000  0.208333000  0.041667000
     0.000000000  0.166667000  0.166667000
     0.041667000  0.208333000  0.208333000
     0.000000000  0.166667000  0.333333000
     0.041667000  0.208333000  0.375000000
     0.000000000  0.166667000  0.500000000
     0.041667000  0.208333000  0.541667000
     0.000000000  0.166667000  0.666667000
     0.041667000  0.208333000  0.708333000
     0.000000000  0.166667000  0.833333000
     0.041667000  0.208333000  0.875000000
     0.000000000  0.333333000  1.000000000
     0.041667000  0.375000000  0.041667000
     0.000000000  0.333333000  0.166667000
     0.041667000  0.375000000  0.208333000
     0.000000000  0.333333000  0.333333000
     0.041667000  0.375000000  0.375000000
     0.000000000  0.333333000  0.500000000
     0.041667000  0.375000000  0.541667000
     0.000000000  0.333333000  0.666667000
     0.041667000  0.375000000  0.708333000
     0.000000000  0.333333000  0.833333000
     0.041667000  0.375000000  0.875000000
     0.000000000  0.500000000  1.000000000
     0.041667000  0.541667000  0.041667000
     0.000000000  0.500000000  0.166667000
     0.041667000  0.541667000  0.208333000
     0.000000000  0.500000000  0.333333000
     0.041667000  0.541667000  0.375000000
     0.000000000  0.500000000  0.500000000
     0.041667000  0.541667000  0.541667000
     0.000000000  0.500000000  0.666667000
     0.041667000  0.541667000  0.708333000
     0.000000000  0.500000000  0.833333000
     0.041667000  0.541667000  0.875000000
     0.000000000  0.666667000  1.000000000
     0.041667000  0.708333000  0.041667000
     0.000000000  0.666667000  0.166667000
     0.041667000  0.708333000  0.208333000
     0.000000000  0.666667000  0.333333000
     0.041667000  0.708333000  0.375000000
     0.000000000  0.666667000  0.500000000
     0.041667000  0.708333000  0.541667000
     0.000000000  0.666667000  0.666667000
     0.041667000  0.708333000  0.708333000
     0.000000000  0.666667000  0.833333000
     0.041667000  0.708333000  0.875000000
     0.000000000  0.833333000  1.000000000
     0.041667000  0.875000000  0.041667000
     0.000000000  0.833333000  0.166667000
     0.041667000  0.875000000  0.208333000
     0.000000000  0.833333000  0.333333000
     0.041667000  0.875000000  0.375000000
     0.000000000  0.833333000  0.500000000
     0.041667000  0.875000000  0.541667000
     0.000000000  0.833333000  0.666667000
     0.041667000  0.875000000  0.708333000
     0.000000000  0.833333000  0.833333000
     0.041667000  0.875000000  0.875000000
     0.166667000  1.000000000  0.000000000
     0.208333000  0.041667000  0.041667000
     0.166667000  1.000000000  0.166667000
     0.208333000  0.041667000  0.208333000
     0.166667000  1.000000000  0.333333000
     0.208333000  0.041667000  0.375000000
     0.166667000  1.000000000  0.500000000
     0.208333000  0.041667000  0.541667000
     0.166667000  1.000000000  0.666667000
     0.208333000  0.041667000  0.708333000
     0.166667000  1.000000000  0.833333000
     0.208333000  0.041667000  0.875000000
     0.166667000  0.166667000  0.000000000
     0.208333000  0.208333000  0.041667000
     0.166667000  0.166667000  0.166667000
     0.208333000  0.208333000  0.208333000
     0.166667000  0.166667000  0.333333000
     0.208333000  0.208333000  0.375000000
     0.166667000  0.166667000  0.500000000
     0.208333000  0.208333000  0.541667000
     0.166667000  0.166667000  0.666667000
     0.208333000  0.208333000  0.708333000
     0.166667000  0.166667000  0.833333000
     0.208333000  0.208333000  0.875000000
     0.166667000  0.333333000  1.000000000
     0.208333000  0.375000000  0.041667000
     0.166667000  0.333333000  0.166667000
     0.208333000  0.375000000  0.208333000
     0.166667000  0.333333000  0.333333000
     0.208333000  0.375000000  0.375000000
     0.166667000  0.333333000  0.500000000
     0.208333000  0.375000000  0.541667000
     0.166667000  0.333333000  0.666667000
     0.208333000  0.375000000  0.708333000
     0.166667000  0.333333000  0.833333000
     0.208333000  0.375000000  0.875000000
     0.166667000  0.500000000  1.000000000
     0.208333000  0.541667000  0.041667000
     0.166667000  0.500000000  0.166667000
     0.208333000  0.541667000  0.208333000
     0.166667000  0.500000000  0.333333000
     0.208333000  0.541667000  0.375000000
     0.166667000  0.500000000  0.500000000
     0.208333000  0.541667000  0.541667000
     0.166667000  0.500000000  0.666667000
     0.208333000  0.541667000  0.708333000
     0.166667000  0.500000000  0.833333000
     0.208333000  0.541667000  0.875000000
     0.166667000  0.666667000  1.000000000
     0.208333000  0.708333000  0.041667000
     0.166667000  0.666667000  0.166667000
     0.208333000  0.708333000  0.208333000
     0.166667000  0.666667000  0.333333000
     0.208333000  0.708333000  0.375000000
     0.166667000  0.666667000  0.500000000
     0.208333000  0.708333000  0.541667000
     0.166667000  0.666667000  0.666667000
     0.208333000  0.708333000  0.708333000
     0.166667000  0.666667000  0.833333000
     0.208333000  0.708333000  0.875000000
     0.166667000  0.833333000  1.000000000
     0.208333000  0.875000000  0.041667000
     0.166667000  0.833333000  0.166667000
     0.208333000  0.875000000  0.208333000
     0.166667000  0.833333000  0.333333000
     0.208333000  0.875000000  0.375000000
     0.166667000  0.833333000  0.500000000
     0.208333000  0.875000000  0.541667000
     0.166667000  0.833333000  0.666667000
     0.208333000  0.875000000  0.708333000
     0.166667000  0.833333000  0.833333000
     0.208333000  0.875000000  0.875000000
     0.333333000  1.000000000  0.000000000
     0.375000000  0.041667000  0.041667000
     0.333333000  1.000000000  0.166667000
     0.375000000  0.041667000  0.208333000
     0.333333000  1.000000000  0.333333000
     0.375000000  0.041667000  0.375000000
     0.333333000  1.000000000  0.500000000
     0.375000000  0.041667000  0.541667000
     0.333333000  1.000000000  0.666667000
     0.375000000  0.041667000  0.708333000
     0.333333000  1.000000000  0.833333000
     0.375000000  0.041667000  0.875000000
     0.333333000  0.166667000  0.000000000
     0.375000000  0.208333000  0.041667000
     0.333333000  0.166667000  0.166667000
     0.375000000  0.208333000  0.208333000
     0.333333000  0.166667000  0.333333000
     0.375000000  0.208333000  0.375000000
     0.333333000  0.166667000  0.500000000
     0.375000000  0.208333000  0.541667000
     0.333333000  0.166667000  0.666667000
     0.375000000  0.208333000  0.708333000
     0.333333000  0.166667000  0.833333000
     0.375000000  0.208333000  0.875000000
     0.333333000  0.333333000  0.000000000
     0.375000000  0.375000000  0.041667000
     0.333333000  0.333333000  0.166667000
     0.375000000  0.375000000  0.208333000
     0.333333000  0.333333000  0.333333000
     0.375000000  0.375000000  0.375000000
     0.333333000  0.333333000  0.500000000
     0.375000000  0.375000000  0.541667000
     0.333333000  0.333333000  0.666667000
     0.375000000  0.375000000  0.708333000
     0.333333000  0.333333000  0.833333000
     0.375000000  0.375000000  0.875000000
     0.333333000  0.500000000  1.000000000
     0.375000000  0.541667000  0.041667000
     0.333333000  0.500000000  0.166667000
     0.375000000  0.541667000  0.208333000
     0.333333000  0.500000000  0.333333000
     0.375000000  0.541667000  0.375000000
     0.333333000  0.500000000  0.500000000
     0.375000000  0.541667000  0.541667000
     0.333333000  0.500000000  0.666667000
     0.375000000  0.541667000  0.708333000
     0.333333000  0.500000000  0.833333000
     0.375000000  0.541667000  0.875000000
     0.333333000  0.666667000  1.000000000
     0.375000000  0.708333000  0.041667000
     0.333333000  0.666667000  0.166667000
     0.375000000  0.708333000  0.208333000
     0.333333000  0.666667000  0.333333000
     0.375000000  0.708333000  0.375000000
     0.333333000  0.666667000  0.500000000
     0.375000000  0.708333000  0.541667000
     0.333333000  0.666667000  0.666667000
     0.375000000  0.708333000  0.708333000
     0.333333000  0.666667000  0.833333000
     0.375000000  0.708333000  0.875000000
     0.333333000  0.833333000  1.000000000
     0.375000000  0.875000000  0.041667000
     0.333333000  0.833333000  0.166667000
     0.375000000  0.875000000  0.208333000
     0.333333000  0.833333000  0.333333000
     0.375000000  0.875000000  0.375000000
     0.333333000  0.833333000  0.500000000
     0.375000000  0.875000000  0.541667000
     0.333333000  0.833333000  0.666667000
     0.375000000  0.875000000  0.708333000
     0.333333000  0.833333000  0.833333000
     0.375000000  0.875000000  0.875000000
     0.500000000  1.000000000  0.000000000
     0.541667000  0.041667000  0.041667000
     0.500000000  1.000000000  0.166667000
     0.541667000  0.041667000  0.208333000
     0.500000000  1.000000000  0.333333000
     0.541667000  0.041667000  0.375000000
     0.500000000  1.000000000  0.500000000
     0.541667000  0.041667000  0.541667000
     0.500000000  1.000000000  0.666667000
     0.541667000  0.041667000  0.708333000
     0.500000000  1.000000000  0.833333000
     0.541667000  0.041667000  0.875000000
     0.500000000  0.166667000  0.000000000
     0.541667000  0.208333000  0.041667000
     0.500000000  0.166667000  0.166667000
     0.541667000  0.208333000  0.208333000
     0.500000000  0.166667000  0.333333000
     0.541667000  0.208333000  0.375000000
     0.500000000  0.166667000  0.500000000
     0.541667000  0.208333000  0.541667000
     0.500000000  0.166667000  0.666667000
     0.541667000  0.208333000  0.708333000
     0.500000000  0.166667000  0.833333000
     0.541667000  0.208333000  0.875000000
     0.500000000  0.333333000  0.000000000
     0.541667000  0.375000000  0.041667000
     0.500000000  0.333333000  0.166667000
     0.541667000  0.375000000  0.208333000
     0.500000000  0.333333000  0.333333000
     0.541667000  0.375000000  0.375000000
     0.500000000  0.333333000  0.500000000
     0.541667000  0.375000000  0.541667000
     0.500000000  0.333333000  0.666667000
     0.541667000  0.375000000  0.708333000
     0.500000000  0.333333000  0.833333000
     0.541667000  0.375000000  0.875000000
     0.500000000  0.500000000  0.000000000
     0.541667000  0.541667000  0.041667000
     0.500000000  0.500000000  0.166667000
     0.541667000  0.541667000  0.208333000
     0.500000000  0.500000000  0.333333000
     0.541667000  0.541667000  0.375000000
     0.500000000  0.500000000  0.500000000
     0.541667000  0.541667000  0.541667000
     0.500000000  0.500000000  0.666667000
     0.541667000  0.541667000  0.708333000
     0.500000000  0.500000000  0.833333000
     0.541667000  0.541667000  0.875000000
     0.500000000  0.666667000  1.000000000
     0.541667000  0.708333000  0.041667000
     0.500000000  0.666667000  0.166667000
     0.541667000  0.708333000  0.208333000
     0.500000000  0.666667000  0.333333000
     0.541667000  0.708333000  0.375000000
     0.500000000  0.666667000  0.500000000
     0.541667000  0.708333000  0.541667000
     0.500000000  0.666667000  0.666667000
     0.541667000  0.708333000  0.708333000
     0.500000000  0.666667000  0.833333000
     0.541667000  0.708333000  0.875000000
     0.500000000  0.833333000  1.000000000
     0.541667000  0.875000000  0.041667000
     0.500000000  0.833333000  0.166667000
     0.541667000  0.875000000  0.208333000
     0.500000000  0.833333000  0.333333000
     0.541667000  0.875000000  0.375000000
     0.500000000  0.833333000  0.500000000
     0.541667000  0.875000000  0.541667000
     0.500000000  0.833333000  0.666667000
     0.541667000  0.875000000  0.708333000
     0.500000000  0.833333000  0.833333000
     0.541667000  0.875000000  0.875000000
     0.666667000  1.000000000  0.000000000
     0.708333000  0.041667000  0.041667000
     0.666667000  1.000000000  0.166667000
     0.708333000  0.041667000  0.208333000
     0.666667000  1.000000000  0.333333000
     0.708333000  0.041667000  0.375000000
     0.666667000  1.000000000  0.500000000
     0.708333000  0.041667000  0.541667000
     0.666667000  1.000000000  0.666667000
     0.708333000  0.041667000  0.708333000
     0.666667000  1.000000000  0.833333000
     0.708333000  0.041667000  0.875000000
     0.666667000  0.166667000  0.000000000
     0.708333000  0.208333000  0.041667000
     0.666667000  0.166667000  0.166667000
     0.708333000  0.208333000  0.208333000
     0.666667000  0.166667000  0.333333000
     0.708333000  0.208333000  0.375000000
     0.666667000  0.166667000  0.500000000
     0.708333000  0.208333000  0.541667000
     0.666667000  0.166667000  0.666667000
     0.708333000  0.208333000  0.708333000
     0.666667000  0.166667000  0.833333000
     0.708333000  0.208333000  0.875000000
     0.666667000  0.333333000  0.000000000
     0.708333000  0.375000000  0.041667000
     0.666667000  0.333333000  0.166667000
     0.708333000  0.375000000  0.208333000
     0.666667000  0.333333000  0.333333000
     0.708333000  0.375000000  0.375000000
     0.666667000  0.333333000  0.500000000
     0.708333000  0.375000000  0.541667000
     0.666667000  0.333333000  0.666667000
     0.708333000  0.375000000  0.708333000
     0.666667000  0.333333000  0.833333000
     0.708333000  0.375000000  0.875000000
     0.666667000  0.500000000  0.000000000
     0.708333000  0.541667000  0.041667000
     0.666667000  0.500000000  0.166667000
     0.708333000  0.541667000  0.208333000
     0.666667000  0.500000000  0.333333000
     0.708333000  0.541667000  0.375000000
     0.666667000  0.500000000  0.500000000
     0.708333000  0.541667000  0.541667000
     0.666667000  0.500000000  0.666667000
     0.708333000  0.541667000  0.708333000
     0.666667000  0.500000000  0.833333000
     0.708333000  0.541667000  0.875000000
     0.666667000  0.666667000  0.000000000
     0.708333000  0.708333000  0.041667000
     0.666667000  0.666667000  0.166667000
     0.708333000  0.708333000  0.208333000
     0.666667000  0.666667000  0.333333000
     0.708333000  0.708333000  0.375000000
     0.666667000  0.666667000  0.500000000
     0.708333000  0.708333000  0.541667000
     0.666667000  0.666667000  0.666667000
     0.708333000  0.708333000  0.708333000
     0.666667000  0.666667000  0.833333000
     0.708333000  0.708333000  0.875000000
     0.666667000  0.833333000  1.000000000
     0.708333000  0.875000000  0.041667000
     0.666667000  0.833333000  0.166667000
     0.708333000  0.875000000  0.208333000
     0.666667000  0.833333000  0.333333000
     0.708333000  0.875000000  0.375000000
     0.666667000  0.833333000  0.500000000
     0.708333000  0.875000000  0.541667000
     0.666667000  0.833333000  0.666667000
     0.708333000  0.875000000  0.708333000
     0.666667000  0.833333000  0.833333000
     0.708333000  0.875000000  0.875000000
     0.833333000  1.000000000  0.000000000
     0.875000000  0.041667000  0.041667000
     0.833333000  1.000000000  0.166667000
     0.875000000  0.041667000  0.208333000
     0.833333000  1.000000000  0.333333000
     0.875000000  0.041667000  0.375000000
     0.833333000  1.000000000  0.500000000
     0.875000000  0.041667000  0.541667000
     0.833333000  1.000000000  0.666667000
     0.875000000  0.041667000  0.708333000
     0.833333000  1.000000000  0.833333000
     0.875000000  0.041667000  0.875000000
     0.833333000  0.166667000  0.000000000
     0.875000000  0.208333000  0.041667000
     0.833333000  0.166667000  0.166667000
     0.875000000  0.208333000  0.208333000
     0.833333000  0.166667000  0.333333000
     0.875000000  0.208333000  0.375000000
     0.833333000  0.166667000  0.500000000
     0.875000000  0.208333000  0.541667000
     0.833333000  0.166667000  0.666667000
     0.875000000  0.208333000  0.708333000
     0.833333000  0.166667000  0.833333000
     0.875000000  0.208333000  0.875000000
     0.833333000  0.333333000  0.000000000
     0.875000000  0.375000000  0.041667000
     0.833333000  0.333333000  0.166667000
     0.875000000  0.375000000  0.208333000
     0.833333000  0.333333000  0.333333000
     0.875000000  0.375000000  0.375000000
     0.833333000  0.333333000  0.500000000
     0.875000000  0.375000000  0.541667000
     0.833333000  0.333333000  0.666667000
     0.875000000  0.375000000  0.708333000
     0.833333000  0.333333000  0.833333000
     0.875000000  0.375000000  0.875000000
     0.833333000  0.500000000  0.000000000
     0.875000000  0.541667000  0.041667000
     0.833333000  0.500000000  0.166667000
     0.875000000  0.541667000  0.208333000
     0.833333000  0.500000000  0.333333000
     0.875000000  0.541667000  0.375000000
     0.833333000  0.500000000  0.500000000
     0.875000000  0.541667000  0.541667000
     0.833333000  0.500000000  0.666667000
     0.875000000  0.541667000  0.708333000
     0.833333000  0.500000000  0.833333000
     0.875000000  0.541667000  0.875000000
     0.833333000  0.666667000  0.000000000
     0.875000000  0.708333000  0.041667000
     0.833333000  0.666667000  0.166667000
     0.875000000  0.708333000  0.208333000
     0.833333000  0.666667000  0.333333000
     0.875000000  0.708333000  0.375000000
     0.833333000  0.666667000  0.500000000
     0.875000000  0.708333000  0.541667000
     0.833333000  0.666667000  0.666667000
     0.875000000  0.708333000  0.708333000
     0.833333000  0.666667000  0.833333000
     0.875000000  0.708333000  0.875000000
     0.833333000  0.833333000  0.000000000
     0.875000000  0.875000000  0.041667000
     0.833333000  0.833333000  0.166667000
     0.875000000  0.875000000  0.208333000
     0.833333000  0.833333000  0.333333000
     0.875000000  0.875000000  0.375000000
     0.833333000  0.833333000  0.500000000
     0.875000000  0.875000000  0.541667000
     0.833333000  0.833333000  0.666667000
     0.875000000  0.875000000  0.708333000
     0.833333000  0.833333000  0.833333000
     0.875000000  0.875000000  0.875000000

  ion indices of the primitive-cell ions
   primitive index   ion index
                 1           1
                 2           2
                 3           3
                 4           4
                 5           5
                 6           6
                 7           7
                 8           8
                 9           9
                10          10
                11          11
                12          12
                13          13
                14          14
                15          15
                16          16
                17          17
                18          18
                19          19
                20          20
                21          21
                22          22
                23          23
                24          24
                25          25
                26          26
                27          27
                28          28
                29          29
                30          30
                31          31
                32          32
                33          33
                34          34
                35          35
                36          36
                37          37
                38          38
                39          39
                40          40
                41          41
                42          42
                43          43
                44          44
                45          45
                46          46
                47          47
                48          48
                49          49
                50          50
                51          51
                52          52
                53          53
                54          54
                55          55
                56          56
                57          57
                58          58
                59          59
                60          60
                61          61
                62          62
                63          63
                64          64
                65          65
                66          66
                67          67
                68          68
                69          69
                70          70
                71          71
                72          72
                73          73
                74          74
                75          75
                76          76
                77          77
                78          78
                79          79
                80          80
                81          81
                82          82
                83          83
                84          84
                85          85
                86          86
                87          87
                88          88
                89          89
                90          90
                91          91
                92          92
                93          93
                94          94
                95          95
                96          96
                97          97
                98          98
                99          99
               100         100
               101         101
               102         102
               103         103
               104         104
               105         105
               106         106
               107         107
               108         108
               109         109
               110         110
               111         111
               112         112
               113         113
               114         114
               115         115
               116         116
               117         117
               118         118
               119         119
               120         120
               121         121
               122         122
               123         123
               124         124
               125         125
               126         126
               127         127
               128         128
               129         129
               130         130
               131         131
               132         132
               133         133
               134         134
               135         135
               136         136
               137         137
               138         138
               139         139
               140         140
               141         141
               142         142
               143         143
               144         144
               145         145
               146         146
               147         147
               148         148
               149         149
               150         150
               151         151
               152         152
               153         153
               154         154
               155         155
               156         156
               157         157
               158         158
               159         159
               160         160
               161         161
               162         162
               163         163
               164         164
               165         165
               166         166
               167         167
               168         168
               169         169
               170         170
               171         171
               172         172
               173         173
               174         174
               175         175
               176         176
               177         177
               178         178
               179         179
               180         180
               181         181
               182         182
               183         183
               184         184
               185         185
               186         186
               187         187
               188         188
               189         189
               190         190
               191         191
               192         192
               193         193
               194         194
               195         195
               196         196
               197         197
               198         198
               199         199
               200         200
               201         201
               202         202
               203         203
               204         204
               205         205
               206         206
               207         207
               208         208
               209         209
               210         210
               211         211
               212         212
               213         213
               214         214
               215         215
               216         216
               217         217
               218         218
               219         219
               220         220
               221         221
               222         222
               223         223
               224         224
               225         225
               226         226
               227         227
               228         228
               229         229
               230         230
               231         231
               232         232
               233         233
               234         234
               235         235
               236         236
               237         237
               238         238
               239         239
               240         240
               241         241
               242         242
               243         243
               244         244
               245         245
               246         246
               247         247
               248         248
               249         249
               250         250
               251         251
               252         252
               253         253
               254         254
               255         255
               256         256
               257         257
               258         258
               259         259
               260         260
               261         261
               262         262
               263         263
               264         264
               265         265
               266         266
               267         267
               268         268
               269         269
               270         270
               271         271
               272         272
               273         273
               274         274
               275         275
               276         276
               277         277
               278         278
               279         279
               280         280
               281         281
               282         282
               283         283
               284         284
               285         285
               286         286
               287         287
               288         288
               289         289
               290         290
               291         291
               292         292
               293         293
               294         294
               295         295
               296         296
               297         297
               298         298
               299         299
               300         300
               301         301
               302         302
               303         303
               304         304
               305         305
               306         306
               307         307
               308         308
               309         309
               310         310
               311         311
               312         312
               313         313
               314         314
               315         315
               316         316
               317         317
               318         318
               319         319
               320         320
               321         321
               322         322
               323         323
               324         324
               325         325
               326         326
               327         327
               328         328
               329         329
               330         330
               331         331
               332         332
               333         333
               334         334
               335         335
               336         336
               337         337
               338         338
               339         339
               340         340
               341         341
               342         342
               343         343
               344         344
               345         345
               346         346
               347         347
               348         348
               349         349
               350         350
               351         351
               352         352
               353         353
               354         354
               355         355
               356         356
               357         357
               358         358
               359         359
               360         360
               361         361
               362         362
               363         363
               364         364
               365         365
               366         366
               367         367
               368         368
               369         369
               370         370
               371         371
               372         372
               373         373
               374         374
               375         375
               376         376
               377         377
               378         378
               379         379
               380         380
               381         381
               382         382
               383         383
               384         384
               385         385
               386         386
               387         387
               388         388
               389         389
               390         390
               391         391
               392         392
               393         393
               394         394
               395         395
               396         396
               397         397
               398         398
               399         399
               400         400
               401         401
               402         402
               403         403
               404         404
               405         405
               406         406
               407         407
               408         408
               409         409
               410         410
               411         411
               412         412
               413         413
               414         414
               415         415
               416         416
               417         417
               418         418
               419         419
               420         420
               421         421
               422         422
               423         423
               424         424
               425         425
               426         426
               427         427
               428         428
               429         429
               430         430
               431         431
               432         432

----------------------------------------------------------------------------------------

 
 
 KPOINTS: Gamma-only                              

Automatic generation of k-mesh.
 Grid dimensions read from file:
 generate k-points for:    1    1    1

 Generating k-lattice:

  Cartesian coordinates                     Fractional coordinates (reciprocal lattice)
     0.030693677  0.030693677 -0.030693677     1.000000000  0.000000000  0.000000000
    -0.030693677  0.030693677  0.030693677    -0.000000000  1.000000000 -0.000000000
     0.030693677 -0.030693677  0.030693677     0.000000000 -0.000000000  1.000000000

  Length of vectors
     0.053163008  0.053163008  0.053163008

  Shift w.r.t. Gamma in fractional coordinates (k-lattice)
     0.000000000  0.000000000  0.000000000

 
 Subroutine IBZKPT returns following result:
 ===========================================
 
 Found      1 irreducible k-points:
 
 Following reciprocal coordinates:
            Coordinates               Weight
  0.000000  0.000000  0.000000      1.000000
 
 Following cartesian coordinates:
            Coordinates               Weight
  0.000000  0.000000  0.000000      1.000000
 


--------------------------------------------------------------------------------------------------------




 Dimension of arrays:
   k-points           NKPTS =      1   k-points in BZ     NKDIM =      1   number of bands    NBANDS=   1084
   number of dos      NEDOS =    301   number of ions     NIONS =    432
   non local maximal  LDIM  =      4   non local SUM 2l+1 LMDIM =      8
   total plane-waves  NPLWV = ******
   max r-space proj   IRMAX =   1595   max aug-charges    IRDMAX=   6881
   dimension x,y,z NGX =   120 NGY =  120 NGZ =  120
   dimension x,y,z NGXF=   240 NGYF=  240 NGZF=  240
   support grid    NGXF=   240 NGYF=  240 NGZF=  240
   ions per type =             432
   NGX,Y,Z   is equivalent  to a cutoff of   8.66,  8.66,  8.66 a.u.
   NGXF,Y,Z  is equivalent  to a cutoff of  17.32, 17.32, 17.32 a.u.

 SYSTEM =  Si_scaling                              
 POSCAR =  Si 6x6x6 primitive supercell (432 atoms)

 Startparameter for this run:
   NWRITE =      2    write-flag & timer
   PREC   = normal    normal or accurate (medium, high low for compatibility)
   ISTART =      0    job   : 0-new  1-cont  2-samecut
   ICHARG =      2    charge: 1-file 2-atom 10-const
   ISPIN  =      1    spin polarized calculation?
   LNONCOLLINEAR =      F non collinear calculations
   LSORBIT =      F    spin-orbit coupling
   INIWAV =      1    electr: 0-lowe 1-rand  2-diag
   LASPH  =      F    aspherical Exc in radial PAW
 Electronic Relaxation 1
   ENCUT  =  400.0 eV  29.40 Ry    5.42 a.u.  37.57 37.57 37.57*2*pi/ulx,y,z
   ENINI  =  400.0     initial cutoff
   ENAUG  =  322.1 eV  augmentation charge cutoff
   NELM   =     20;   NELMIN= 20; NELMDL= -5     # of ELM steps 
   EDIFF  = 0.1E-05   stopping-criterion for ELM
   LREAL  =      T    real-space projection
   NLSPLINE    = F    spline interpolate recip. space projectors
   LCOMPAT=      F    compatible to vasp.4.4
   GGA_COMPAT  = T    GGA compatible to vasp.4.4-vasp.4.6
   LMAXPAW     = -100 max onsite density
   LMAXMIX     =    2 max onsite mixed and CHGCAR
   VOSKOWN=      0    Vosko Wilk Nusair interpolation
   ROPT   =   -0.00050
 Ionic relaxation
   EDIFFG = 0.1E-04   stopping-criterion for IOM
   NSW    =      0    number of steps for IOM
   NBLOCK =      1;   KBLOCK =      1    inner block; outer block 
   IBRION =     -1    ionic relax: 0-MD 1-quasi-New 2-CG
   NFREE  =      0    steps in history (QN), initial steepest desc. (CG)
   ISIF   =      2    stress and relaxation
   IWAVPR =     10    prediction:  0-non 1-charg 2-wave 3-comb
   ISYM   =      0    0-nonsym 1-usesym 2-fastsym
   LCORR  =      T    Harris-Foulkes like correction to forces

   POTIM  = 0.5000    time-step for ionic-motion
   TEIN   =    0.0    initial temperature
   TEBEG  =    0.0;   TEEND  =   0.0 temperature during run
   SMASS  =  -3.00    Nose mass-parameter (am)
   estimated Nose-frequenzy (Omega)   =  0.10E-29 period in steps = 0.13E+47 mass=  -0.121E-25a.u.
   SCALEE = 1.0000    scale energy and forces
   NPACO  =    256;   APACO  = 10.0  distance and # of slots for P.C.
   PSTRESS=    0.0 pullay stress

  Mass of Ions in am
   POMASS =  28.09
  Ionic Valenz
   ZVAL   =   4.00
  Atomic Wigner-Seitz radii
   RWIGS  =  -1.00
  virtual crystal weights 
   VCA    =   1.00
   NELECT =    1728.0000    total number of electrons
   NUPDOWN=      -1.0000    fix difference up-down

 DOS related values:
   EMIN   =  10.00;   EMAX   =-10.00  energy-range for DOS
   EFERMI =   0.00;   METHOD = LEGACY      
   ISMEAR =     0;   SIGMA  =   0.05  broadening in eV -4-tet -1-fermi 0-gaus
   EFERMI_NEDOS =   21; number of points for ismear=-14 and -15

 Electronic relaxation 2 (details)
   IALGO  =     38    algorithm
   LDIAG  =      T    sub-space diagonalisation (order eigenvalues)
   LSUBROT=      F    optimize rotation matrix (better conditioning)
   LROBUST=      F    robust break criterion during scf (extrapolated energy error)
   ISEARCH=      0    line search for conjugate gradient (0, 1=use gradient)
   TURBO    =      0    0=normal 1=particle mesh
   IRESTART =      0    0=no restart 2=restart with 2 vectors
   NREBOOT  =      0    no. of reboots
   NMIN     =      0    reboot dimension
   EREF     =   0.00    reference energy to select bands
   IMIX   =      4    mixing-type and parameters
     AMIX     =   0.40;   BMIX     =  1.00
     AMIX_MAG =   1.60;   BMIX_MAG =  1.00
     AMIN     =   0.10
     WC   =   100.;   INIMIX=   1;  MIXPRE=   1;  MAXMIX= -45

 Intra band minimization:
   WEIMIN = 0.0000     energy-eigenvalue tresh-hold
   EBREAK =  0.23E-09  absolut break condition
   DEPER  =   0.30     relativ break condition  

   TIME   =   0.40     timestep for ELM

  volume/ion in A,a.u.               =      20.01       135.05
  Fermi-wavevector in a.u.,A,eV,Ry     =   0.957176  1.808800 12.465458  0.916185
  Thomas-Fermi vector in A             =   2.086170
 
 Write flags
   LWAVE        =      T    write WAVECAR
   LDOWNSAMPLE  =      F    k-point downsampling of WAVECAR
   LCHARG       =      T    write CHGCAR
   LVTOT        =      F    write LOCPOT, total local potential
   LVHAR        =      F    write LOCPOT, Hartree potential only
   WRT_POTENTIAL= false  ! write potential to hdf5 file
   LELF         =      F    write electronic localiz. function (ELF)
   LORBIT       =      0    0 simple, 1 ext, 2 COOP (PROOUT), +10 PAW based schemes


 Python interface
   PLUGINS active      =      F    recompile with -DPLUGINS to activate
 
 Dipole corrections
   LMONO      =      F    monopole corrections only (constant potential shift)
   LDIPOL     =      F    correct potential (dipole corrections)
   IDIPOL     =      0    1-x, 2-y, 3-z, 4-all directions 
   EPSILON    =  1.0000000 bulk dielectric constant
   LVACPOTAV  =      F  vacuum potentials using an averaging scheme for the charge density
   VACPOTFLAT =  0.1000000 required flatness to determine vacuum potential
 
Coulomb truncation method
  LTRUNCATE          =      F  Coulomb kernel truncation to be used

 
 Exchange correlation treatment:
   GGA     = PE    functional components
   XC_C    = 1    coefficients multiplying the functional components
   LIBXC   =     F    Libxc                    
   VOSKOWN =     0    Vosko Wilk Nusair interpolation
   LHFCALC =     F    Hartree Fock is set to
   LHFONE  =     F    Hartree Fock one center treatment
   AEXX    =    0.0000 exact exchange contribution

 Parameters of functionals:
   PE:
     No parameter
 
 Van der Waals corrections
   IVDW    =     0    specifies the selected vdW correction

 Linear response parameters
   LEPSILON=     F    determine dielectric tensor
   LRPA    =     F    only Hartree local field effects (RPA)
   LNABLA  =     F    use nabla operator in PAW spheres
   LVEL    =     F    velocity operator in full k-point grid
   CSHIFT  =0.1000    complex shift for real part using Kramers Kronig
   OMEGAMAX=  -1.0    maximum frequency
   DEG_THRESHOLD= 0.2000000E-02 threshold for treating states as degnerate
   RTIME   =   -0.100 relaxation time in fs
  (WPLASMAI=    0.000 imaginary part of plasma frequency in eV, 0.658/RTIME)
   DFIELD  = 0.0000000 0.0000000 0.0000000 field for delta impulse in time
 
  Optional k-point grid parameters
   LKPOINTS_OPT  =     F    use optional k-point grid
   KPOINTS_OPT_MODE=     1    mode for optional k-point grid
 
 Orbital magnetization related:
   ORBITALMAG=     F  switch on orbital magnetization
   LCHIMAG   =     F  perturbation theory with respect to B field
   DQ        =  0.001000  dq finite difference perturbation B field
   LLRAUG    =     F  two centre corrections for induced B field
   LBONE     =     F  B-component reconstruction in AE one-centre
   LVGVCALC  =     T  calculate vGv susceptibility
   LVGVAPPL  =     F  apply vGv susceptibility instead of pGv for G=0

 Random number generation:
   RANDOM_GENERATOR = DEFAULT
   PCG_SEED         = not used


--------------------------------------------------------------------------------------------------------


 Static calculation
 charge density and potential will be updated during run
 non-spin polarized calculation
 Variant of blocked Davidson
 Davidson routine will perform the subspace rotation
 perform sub-space diagonalisation
    after iterative eigenvector-optimisation
 modified Broyden-mixing scheme, WC =      100.0
 initial mixing is a Kerker type mixing with AMIX =  0.4000 and BMIX =      1.0000
 Hartree-type preconditioning will be used
 using additional bands           220
 real space projection scheme for non local part
 use partial core corrections
 calculate Harris-corrections to forces 
   (improved forces if not selfconsistent)
 use gradient corrections 
 use of overlap-Matrix (Vanderbilt PP)
 Gauss-broadening in eV      SIGMA  =   0.05


--------------------------------------------------------------------------------------------------------


  energy-cutoff  :      400.00
  volume of cell :     8645.56
      direct lattice vectors                 reciprocal lattice vectors
    16.290000000 16.290000000  0.000000000     0.030693677  0.030693677 -0.030693677
     0.000000000 16.290000000 16.290000000    -0.030693677  0.030693677  0.030693677
    16.290000000  0.000000000 16.290000000     0.030693677 -0.030693677  0.030693677

  length of vectors
    23.037538931 23.037538931 23.037538931     0.053163008  0.053163008  0.053163008


 
 k-points in units of 2pi/SCALE and weight: Gamma-only                              
   0.00000000  0.00000000  0.00000000       1.000
 
 k-points in reciprocal lattice and weights: Gamma-only                              
   0.00000000  0.00000000  0.00000000       1.000
 
 position of ions in fractional coordinates (direct lattice) 
   0.00000000  0.00000000  0.00000000
   0.04166700  0.04166700  0.04166700
   0.00000000  0.00000000  0.16666700
   0.04166700  0.04166700  0.20833300
   0.00000000  0.00000000  0.33333300
   0.04166700  0.04166700  0.37500000
   0.00000000  0.00000000  0.50000000
   0.04166700  0.04166700  0.54166700
   0.00000000  0.00000000  0.66666700
   0.04166700  0.04166700  0.70833300
   0.00000000  0.00000000  0.83333300
   0.04166700  0.04166700  0.87500000
   0.00000000  0.16666700  0.00000000
   0.04166700  0.20833300  0.04166700
   0.00000000  0.16666700  0.16666700
   0.04166700  0.20833300  0.20833300
   0.00000000  0.16666700  0.33333300
   0.04166700  0.20833300  0.37500000
   0.00000000  0.16666700  0.50000000
   0.04166700  0.20833300  0.54166700
   0.00000000  0.16666700  0.66666700
   0.04166700  0.20833300  0.70833300
   0.00000000  0.16666700  0.83333300
   0.04166700  0.20833300  0.87500000
   0.00000000  0.33333300  0.00000000
   0.04166700  0.37500000  0.04166700
   0.00000000  0.33333300  0.16666700
   0.04166700  0.37500000  0.20833300
   0.00000000  0.33333300  0.33333300
   0.04166700  0.37500000  0.37500000
   0.00000000  0.33333300  0.50000000
   0.04166700  0.37500000  0.54166700
   0.00000000  0.33333300  0.66666700
   0.04166700  0.37500000  0.70833300
   0.00000000  0.33333300  0.83333300
   0.04166700  0.37500000  0.87500000
   0.00000000  0.50000000  0.00000000
   0.04166700  0.54166700  0.04166700
   0.00000000  0.50000000  0.16666700
   0.04166700  0.54166700  0.20833300
   0.00000000  0.50000000  0.33333300
   0.04166700  0.54166700  0.37500000
   0.00000000  0.50000000  0.50000000
   0.04166700  0.54166700  0.54166700
   0.00000000  0.50000000  0.66666700
   0.04166700  0.54166700  0.70833300
   0.00000000  0.50000000  0.83333300
   0.04166700  0.54166700  0.87500000
   0.00000000  0.66666700  0.00000000
   0.04166700  0.70833300  0.04166700
   0.00000000  0.66666700  0.16666700
   0.04166700  0.70833300  0.20833300
   0.00000000  0.66666700  0.33333300
   0.04166700  0.70833300  0.37500000
   0.00000000  0.66666700  0.50000000
   0.04166700  0.70833300  0.54166700
   0.00000000  0.66666700  0.66666700
   0.04166700  0.70833300  0.70833300
   0.00000000  0.66666700  0.83333300
   0.04166700  0.70833300  0.87500000
   0.00000000  0.83333300  0.00000000
   0.04166700  0.87500000  0.04166700
   0.00000000  0.83333300  0.16666700
   0.04166700  0.87500000  0.20833300
   0.00000000  0.83333300  0.33333300
   0.04166700  0.87500000  0.37500000
   0.00000000  0.83333300  0.50000000
   0.04166700  0.87500000  0.54166700
   0.00000000  0.83333300  0.66666700
   0.04166700  0.87500000  0.70833300
   0.00000000  0.83333300  0.83333300
   0.04166700  0.87500000  0.87500000
   0.16666700  0.00000000  0.00000000
   0.20833300  0.04166700  0.04166700
   0.16666700  0.00000000  0.16666700
   0.20833300  0.04166700  0.20833300
   0.16666700  0.00000000  0.33333300
   0.20833300  0.04166700  0.37500000
   0.16666700  0.00000000  0.50000000
   0.20833300  0.04166700  0.54166700
   0.16666700  0.00000000  0.66666700
   0.20833300  0.04166700  0.70833300
   0.16666700  0.00000000  0.83333300
   0.20833300  0.04166700  0.87500000
   0.16666700  0.16666700  0.00000000
   0.20833300  0.20833300  0.04166700
   0.16666700  0.16666700  0.16666700
   0.20833300  0.20833300  0.20833300
   0.16666700  0.16666700  0.33333300
   0.20833300  0.20833300  0.37500000
   0.16666700  0.16666700  0.50000000
   0.20833300  0.20833300  0.54166700
   0.16666700  0.16666700  0.66666700
   0.20833300  0.20833300  0.70833300
   0.16666700  0.16666700  0.83333300
   0.20833300  0.20833300  0.87500000
   0.16666700  0.33333300  0.00000000
   0.20833300  0.37500000  0.04166700
   0.16666700  0.33333300  0.16666700
   0.20833300  0.37500000  0.20833300
   0.16666700  0.33333300  0.33333300
   0.20833300  0.37500000  0.37500000
   0.16666700  0.33333300  0.50000000
   0.20833300  0.37500000  0.54166700
   0.16666700  0.33333300  0.66666700
   0.20833300  0.37500000  0.70833300
   0.16666700  0.33333300  0.83333300
   0.20833300  0.37500000  0.87500000
   0.16666700  0.50000000  0.00000000
   0.20833300  0.54166700  0.04166700
   0.16666700  0.50000000  0.16666700
   0.20833300  0.54166700  0.20833300
   0.16666700  0.50000000  0.33333300
   0.20833300  0.54166700  0.37500000
   0.16666700  0.50000000  0.50000000
   0.20833300  0.54166700  0.54166700
   0.16666700  0.50000000  0.66666700
   0.20833300  0.54166700  0.70833300
   0.16666700  0.50000000  0.83333300
   0.20833300  0.54166700  0.87500000
   0.16666700  0.66666700  0.00000000
   0.20833300  0.70833300  0.04166700
   0.16666700  0.66666700  0.16666700
   0.20833300  0.70833300  0.20833300
   0.16666700  0.66666700  0.33333300
   0.20833300  0.70833300  0.37500000
   0.16666700  0.66666700  0.50000000
   0.20833300  0.70833300  0.54166700
   0.16666700  0.66666700  0.66666700
   0.20833300  0.70833300  0.70833300
   0.16666700  0.66666700  0.83333300
   0.20833300  0.70833300  0.87500000
   0.16666700  0.83333300  0.00000000
   0.20833300  0.87500000  0.04166700
   0.16666700  0.83333300  0.16666700
   0.20833300  0.87500000  0.20833300
   0.16666700  0.83333300  0.33333300
   0.20833300  0.87500000  0.37500000
   0.16666700  0.83333300  0.50000000
   0.20833300  0.87500000  0.54166700
   0.16666700  0.83333300  0.66666700
   0.20833300  0.87500000  0.70833300
   0.16666700  0.83333300  0.83333300
   0.20833300  0.87500000  0.87500000
   0.33333300  0.00000000  0.00000000
   0.37500000  0.04166700  0.04166700
   0.33333300  0.00000000  0.16666700
   0.37500000  0.04166700  0.20833300
   0.33333300  0.00000000  0.33333300
   0.37500000  0.04166700  0.37500000
   0.33333300  0.00000000  0.50000000
   0.37500000  0.04166700  0.54166700
   0.33333300  0.00000000  0.66666700
   0.37500000  0.04166700  0.70833300
   0.33333300  0.00000000  0.83333300
   0.37500000  0.04166700  0.87500000
   0.33333300  0.16666700  0.00000000
   0.37500000  0.20833300  0.04166700
   0.33333300  0.16666700  0.16666700
   0.37500000  0.20833300  0.20833300
   0.33333300  0.16666700  0.33333300
   0.37500000  0.20833300  0.37500000
   0.33333300  0.16666700  0.50000000
   0.37500000  0.20833300  0.54166700
   0.33333300  0.16666700  0.66666700
   0.37500000  0.20833300  0.70833300
   0.33333300  0.16666700  0.83333300
   0.37500000  0.20833300  0.87500000
   0.33333300  0.33333300  0.00000000
   0.37500000  0.37500000  0.04166700
   0.33333300  0.33333300  0.16666700
   0.37500000  0.37500000  0.20833300
   0.33333300  0.33333300  0.33333300
   0.37500000  0.37500000  0.37500000
   0.33333300  0.33333300  0.50000000
   0.37500000  0.37500000  0.54166700
   0.33333300  0.33333300  0.66666700
   0.37500000  0.37500000  0.70833300
   0.33333300  0.33333300  0.83333300
   0.37500000  0.37500000  0.87500000
   0.33333300  0.50000000  0.00000000
   0.37500000  0.54166700  0.04166700
   0.33333300  0.50000000  0.16666700
   0.37500000  0.54166700  0.20833300
   0.33333300  0.50000000  0.33333300
   0.37500000  0.54166700  0.37500000
   0.33333300  0.50000000  0.50000000
   0.37500000  0.54166700  0.54166700
   0.33333300  0.50000000  0.66666700
   0.37500000  0.54166700  0.70833300
   0.33333300  0.50000000  0.83333300
   0.37500000  0.54166700  0.87500000
   0.33333300  0.66666700  0.00000000
   0.37500000  0.70833300  0.04166700
   0.33333300  0.66666700  0.16666700
   0.37500000  0.70833300  0.20833300
   0.33333300  0.66666700  0.33333300
   0.37500000  0.70833300  0.37500000
   0.33333300  0.66666700  0.50000000
   0.37500000  0.70833300  0.54166700
   0.33333300  0.66666700  0.66666700
   0.37500000  0.70833300  0.70833300
   0.33333300  0.66666700  0.83333300
   0.37500000  0.70833300  0.87500000
   0.33333300  0.83333300  0.00000000
   0.37500000  0.87500000  0.04166700
   0.33333300  0.83333300  0.16666700
   0.37500000  0.87500000  0.20833300
   0.33333300  0.83333300  0.33333300
   0.37500000  0.87500000  0.37500000
   0.33333300  0.83333300  0.50000000
   0.37500000  0.87500000  0.54166700
   0.33333300  0.83333300  0.66666700
   0.37500000  0.87500000  0.70833300
   0.33333300  0.83333300  0.83333300
   0.37500000  0.87500000  0.87500000
   0.50000000  0.00000000  0.00000000
   0.54166700  0.04166700  0.04166700
   0.50000000  0.00000000  0.16666700
   0.54166700  0.04166700  0.20833300
   0.50000000  0.00000000  0.33333300
   0.54166700  0.04166700  0.37500000
   0.50000000  0.00000000  0.50000000
   0.54166700  0.04166700  0.54166700
   0.50000000  0.00000000  0.66666700
   0.54166700  0.04166700  0.70833300
   0.50000000  0.00000000  0.83333300
   0.54166700  0.04166700  0.87500000
   0.50000000  0.16666700  0.00000000
   0.54166700  0.20833300  0.04166700
   0.50000000  0.16666700  0.16666700
   0.54166700  0.20833300  0.20833300
   0.50000000  0.16666700  0.33333300
   0.54166700  0.20833300  0.37500000
   0.50000000  0.16666700  0.50000000
   0.54166700  0.20833300  0.54166700
   0.50000000  0.16666700  0.66666700
   0.54166700  0.20833300  0.70833300
   0.50000000  0.16666700  0.83333300
   0.54166700  0.20833300  0.87500000
   0.50000000  0.33333300  0.00000000
   0.54166700  0.37500000  0.04166700
   0.50000000  0.33333300  0.16666700
   0.54166700  0.37500000  0.20833300
   0.50000000  0.33333300  0.33333300
   0.54166700  0.37500000  0.37500000
   0.50000000  0.33333300  0.50000000
   0.54166700  0.37500000  0.54166700
   0.50000000  0.33333300  0.66666700
   0.54166700  0.37500000  0.70833300
   0.50000000  0.33333300  0.83333300
   0.54166700  0.37500000  0.87500000
   0.50000000  0.50000000  0.00000000
   0.54166700  0.54166700  0.04166700
   0.50000000  0.50000000  0.16666700
   0.54166700  0.54166700  0.20833300
   0.50000000  0.50000000  0.33333300
   0.54166700  0.54166700  0.37500000
   0.50000000  0.50000000  0.50000000
   0.54166700  0.54166700  0.54166700
   0.50000000  0.50000000  0.66666700
   0.54166700  0.54166700  0.70833300
   0.50000000  0.50000000  0.83333300
   0.54166700  0.54166700  0.87500000
   0.50000000  0.66666700  0.00000000
   0.54166700  0.70833300  0.04166700
   0.50000000  0.66666700  0.16666700
   0.54166700  0.70833300  0.20833300
   0.50000000  0.66666700  0.33333300
   0.54166700  0.70833300  0.37500000
   0.50000000  0.66666700  0.50000000
   0.54166700  0.70833300  0.54166700
   0.50000000  0.66666700  0.66666700
   0.54166700  0.70833300  0.70833300
   0.50000000  0.66666700  0.83333300
   0.54166700  0.70833300  0.87500000
   0.50000000  0.83333300  0.00000000
   0.54166700  0.87500000  0.04166700
   0.50000000  0.83333300  0.16666700
   0.54166700  0.87500000  0.20833300
   0.50000000  0.83333300  0.33333300
   0.54166700  0.87500000  0.37500000
   0.50000000  0.83333300  0.50000000
   0.54166700  0.87500000  0.54166700
   0.50000000  0.83333300  0.66666700
   0.54166700  0.87500000  0.70833300
   0.50000000  0.83333300  0.83333300
   0.54166700  0.87500000  0.87500000
   0.66666700  0.00000000  0.00000000
   0.70833300  0.04166700  0.04166700
   0.66666700  0.00000000  0.16666700
   0.70833300  0.04166700  0.20833300
   0.66666700  0.00000000  0.33333300
   0.70833300  0.04166700  0.37500000
   0.66666700  0.00000000  0.50000000
   0.70833300  0.04166700  0.54166700
   0.66666700  0.00000000  0.66666700
   0.70833300  0.04166700  0.70833300
   0.66666700  0.00000000  0.83333300
   0.70833300  0.04166700  0.87500000
   0.66666700  0.16666700  0.00000000
   0.70833300  0.20833300  0.04166700
   0.66666700  0.16666700  0.16666700
   0.70833300  0.20833300  0.20833300
   0.66666700  0.16666700  0.33333300
   0.70833300  0.20833300  0.37500000
   0.66666700  0.16666700  0.50000000
   0.70833300  0.20833300  0.54166700
   0.66666700  0.16666700  0.66666700
   0.70833300  0.20833300  0.70833300
   0.66666700  0.16666700  0.83333300
   0.70833300  0.20833300  0.87500000
   0.66666700  0.33333300  0.00000000
   0.70833300  0.37500000  0.04166700
   0.66666700  0.33333300  0.16666700
   0.70833300  0.37500000  0.20833300
   0.66666700  0.33333300  0.33333300
   0.70833300  0.37500000  0.37500000
   0.66666700  0.33333300  0.50000000
   0.70833300  0.37500000  0.54166700
   0.66666700  0.33333300  0.66666700
   0.70833300  0.37500000  0.70833300
   0.66666700  0.33333300  0.83333300
   0.70833300  0.37500000  0.87500000
   0.66666700  0.50000000  0.00000000
   0.70833300  0.54166700  0.04166700
   0.66666700  0.50000000  0.16666700
   0.70833300  0.54166700  0.20833300
   0.66666700  0.50000000  0.33333300
   0.70833300  0.54166700  0.37500000
   0.66666700  0.50000000  0.50000000
   0.70833300  0.54166700  0.54166700
   0.66666700  0.50000000  0.66666700
   0.70833300  0.54166700  0.70833300
   0.66666700  0.50000000  0.83333300
   0.70833300  0.54166700  0.87500000
   0.66666700  0.66666700  0.00000000
   0.70833300  0.70833300  0.04166700
   0.66666700  0.66666700  0.16666700
   0.70833300  0.70833300  0.20833300
   0.66666700  0.66666700  0.33333300
   0.70833300  0.70833300  0.37500000
   0.66666700  0.66666700  0.50000000
   0.70833300  0.70833300  0.54166700
   0.66666700  0.66666700  0.66666700
   0.70833300  0.70833300  0.70833300
   0.66666700  0.66666700  0.83333300
   0.70833300  0.70833300  0.87500000
   0.66666700  0.83333300  0.00000000
   0.70833300  0.87500000  0.04166700
   0.66666700  0.83333300  0.16666700
   0.70833300  0.87500000  0.20833300
   0.66666700  0.83333300  0.33333300
   0.70833300  0.87500000  0.37500000
   0.66666700  0.83333300  0.50000000
   0.70833300  0.87500000  0.54166700
   0.66666700  0.83333300  0.66666700
   0.70833300  0.87500000  0.70833300
   0.66666700  0.83333300  0.83333300
   0.70833300  0.87500000  0.87500000
   0.83333300  0.00000000  0.00000000
   0.87500000  0.04166700  0.04166700
   0.83333300  0.00000000  0.16666700
   0.87500000  0.04166700  0.20833300
   0.83333300  0.00000000  0.33333300
   0.87500000  0.04166700  0.37500000
   0.83333300  0.00000000  0.50000000
   0.87500000  0.04166700  0.54166700
   0.83333300  0.00000000  0.66666700
   0.87500000  0.04166700  0.70833300
   0.83333300  0.00000000  0.83333300
   0.87500000  0.04166700  0.87500000
   0.83333300  0.16666700  0.00000000
   0.87500000  0.20833300  0.04166700
   0.83333300  0.16666700  0.16666700
   0.87500000  0.20833300  0.20833300
   0.83333300  0.16666700  0.33333300
   0.87500000  0.20833300  0.37500000
   0.83333300  0.16666700  0.50000000
   0.87500000  0.20833300  0.54166700
   0.83333300  0.16666700  0.66666700
   0.87500000  0.20833300  0.70833300
   0.83333300  0.16666700  0.83333300
   0.87500000  0.20833300  0.87500000
   0.83333300  0.33333300  0.00000000
   0.87500000  0.37500000  0.04166700
   0.83333300  0.33333300  0.16666700
   0.87500000  0.37500000  0.20833300
   0.83333300  0.33333300  0.33333300
   0.87500000  0.37500000  0.37500000
   0.83333300  0.33333300  0.50000000
   0.87500000  0.37500000  0.54166700
   0.83333300  0.33333300  0.66666700
   0.87500000  0.37500000  0.70833300
   0.83333300  0.33333300  0.83333300
   0.87500000  0.37500000  0.87500000
   0.83333300  0.50000000  0.00000000
   0.87500000  0.54166700  0.04166700
   0.83333300  0.50000000  0.16666700
   0.87500000  0.54166700  0.20833300
   0.83333300  0.50000000  0.33333300
   0.87500000  0.54166700  0.37500000
   0.83333300  0.50000000  0.50000000
   0.87500000  0.54166700  0.54166700
   0.83333300  0.50000000  0.66666700
   0.87500000  0.54166700  0.70833300
   0.83333300  0.50000000  0.83333300
   0.87500000  0.54166700  0.87500000
   0.83333300  0.66666700  0.00000000
   0.87500000  0.70833300  0.04166700
   0.83333300  0.66666700  0.16666700
   0.87500000  0.70833300  0.20833300
   0.83333300  0.66666700  0.33333300
   0.87500000  0.70833300  0.37500000
   0.83333300  0.66666700  0.50000000
   0.87500000  0.70833300  0.54166700
   0.83333300  0.66666700  0.66666700
   0.87500000  0.70833300  0.70833300
   0.83333300  0.66666700  0.83333300
   0.87500000  0.70833300  0.87500000
   0.83333300  0.83333300  0.00000000
   0.87500000  0.87500000  0.04166700
   0.83333300  0.83333300  0.16666700
   0.87500000  0.87500000  0.20833300
   0.83333300  0.83333300  0.33333300
   0.87500000  0.87500000  0.37500000
   0.83333300  0.83333300  0.50000000
   0.87500000  0.87500000  0.54166700
   0.83333300  0.83333300  0.66666700
   0.87500000  0.87500000  0.70833300
   0.83333300  0.83333300  0.83333300
   0.87500000  0.87500000  0.87500000
 
 position of ions in cartesian coordinates  (Angst):
   0.00000000  0.00000000  0.00000000
   1.35751086  1.35751086  1.35751086
   2.71500543  0.00000000  2.71500543
   4.07250000  1.35751086  4.07250000
   5.42999457  0.00000000  5.42999457
   6.78750543  1.35751086  6.78750543
   8.14500000  0.00000000  8.14500000
   9.50251086  1.35751086  9.50251086
  10.86000543  0.00000000 10.86000543
  12.21750000  1.35751086 12.21750000
  13.57499457  0.00000000 13.57499457
  14.93250543  1.35751086 14.93250543
   0.00000000  2.71500543  2.71500543
   1.35751086  4.07250000  4.07250000
   2.71500543  2.71500543  5.43001086
   4.07250000  4.07250000  6.78748914
   5.42999457  2.71500543  8.14500000
   6.78750543  4.07250000  9.50249457
   8.14500000  2.71500543 10.86000543
   9.50251086  4.07250000 12.21750000
  10.86000543  2.71500543 13.57501086
  12.21750000  4.07250000 14.93248914
  13.57499457  2.71500543 16.29000000
  14.93250543  4.07250000 17.64749457
   0.00000000  5.42999457  5.42999457
   1.35751086  6.78750543  6.78750543
   2.71500543  5.42999457  8.14500000
   4.07250000  6.78750543  9.50249457
   5.42999457  5.42999457 10.85998914
   6.78750543  6.78750543 12.21750000
   8.14500000  5.42999457 13.57499457
   9.50251086  6.78750543 14.93250543
  10.86000543  5.42999457 16.29000000
  12.21750000  6.78750543 17.64749457
  13.57499457  5.42999457 19.00498914
  14.93250543  6.78750543 20.36250000
   0.00000000  8.14500000  8.14500000
   1.35751086  9.50251086  9.50251086
   2.71500543  8.14500000 10.86000543
   4.07250000  9.50251086 12.21750000
   5.42999457  8.14500000 13.57499457
   6.78750543  9.50251086 14.93250543
   8.14500000  8.14500000 16.29000000
   9.50251086  9.50251086 17.64751086
  10.86000543  8.14500000 19.00500543
  12.21750000  9.50251086 20.36250000
  13.57499457  8.14500000 21.71999457
  14.93250543  9.50251086 23.07750543
   0.00000000 10.86000543 10.86000543
   1.35751086 12.21750000 12.21750000
   2.71500543 10.86000543 13.57501086
   4.07250000 12.21750000 14.93248914
   5.42999457 10.86000543 16.29000000
   6.78750543 12.21750000 17.64749457
   8.14500000 10.86000543 19.00500543
   9.50251086 12.21750000 20.36250000
  10.86000543 10.86000543 21.72001086
  12.21750000 12.21750000 23.07748914
  13.57499457 10.86000543 24.43500000
  14.93250543 12.21750000 25.79249457
   0.00000000 13.57499457 13.57499457
   1.35751086 14.93250543 14.93250543
   2.71500543 13.57499457 16.29000000
   4.07250000 14.93250543 17.64749457
   5.42999457 13.57499457 19.00498914
   6.78750543 14.93250543 20.36250000
   8.14500000 13.57499457 21.71999457
   9.50251086 14.93250543 23.07750543
  10.86000543 13.57499457 24.43500000
  12.21750000 14.93250543 25.79249457
  13.57499457 13.57499457 27.14998914
  14.93250543 14.93250543 28.50750000
   2.71500543  2.71500543  0.00000000
   4.07250000  4.07250000  1.35751086
   5.43001086  2.71500543  2.71500543
   6.78748914  4.07250000  4.07250000
   8.14500000  2.71500543  5.42999457
   9.50249457  4.07250000  6.78750543
  10.86000543  2.71500543  8.14500000
  12.21750000  4.07250000  9.50251086
  13.57501086  2.71500543 10.86000543
  14.93248914  4.07250000 12.21750000
  16.29000000  2.71500543 13.57499457
  17.64749457  4.07250000 14.93250543
   2.71500543  5.43001086  2.71500543
   4.07250000  6.78748914  4.07250000
   5.43001086  5.43001086  5.43001086
   6.78748914  6.78748914  6.78748914
   8.14500000  5.43001086  8.14500000
   9.50249457  6.78748914  9.50249457
  10.86000543  5.43001086 10.86000543
  12.21750000  6.78748914 12.21750000
  13.57501086  5.43001086 13.57501086
  14.93248914  6.78748914 14.93248914
  16.29000000  5.43001086 16.29000000
  17.64749457  6.78748914 17.64749457
   2.71500543  8.14500000  5.42999457
   4.07250000  9.50249457  6.78750543
   5.43001086  8.14500000  8.14500000
   6.78748914  9.50249457  9.50249457
   8.14500000  8.14500000 10.85998914
   9.50249457  9.50249457 12.21750000
  10.86000543  8.14500000 13.57499457
  12.21750000  9.50249457 14.93250543
  13.57501086  8.14500000 16.29000000
  14.93248914  9.50249457 17.64749457
  16.29000000  8.14500000 19.00498914
  17.64749457  9.50249457 20.36250000
   2.71500543 10.86000543  8.14500000
   4.07250000 12.21750000  9.50251086
   5.43001086 10.86000543 10.86000543
   6.78748914 12.21750000 12.21750000
   8.14500000 10.86000543 13.57499457
   9.50249457 12.21750000 14.93250543
  10.86000543 10.86000543 16.29000000
  12.21750000 12.21750000 17.64751086
  13.57501086 10.86000543 19.00500543
  14.93248914 12.21750000 20.36250000
  16.29000000 10.86000543 21.71999457
  17.64749457 12.21750000 23.07750543
   2.71500543 13.57501086 10.86000543
   4.07250000 14.93248914 12.21750000
   5.43001086 13.57501086 13.57501086
   6.78748914 14.93248914 14.93248914
   8.14500000 13.57501086 16.29000000
   9.50249457 14.93248914 17.64749457
  10.86000543 13.57501086 19.00500543
  12.21750000 14.93248914 20.36250000
  13.57501086 13.57501086 21.72001086
  14.93248914 14.93248914 23.07748914
  16.29000000 13.57501086 24.43500000
  17.64749457 14.93248914 25.79249457
   2.71500543 16.29000000 13.57499457
   4.07250000 17.64749457 14.93250543
   5.43001086 16.29000000 16.29000000
   6.78748914 17.64749457 17.64749457
   8.14500000 16.29000000 19.00498914
   9.50249457 17.64749457 20.36250000
  10.86000543 16.29000000 21.71999457
  12.21750000 17.64749457 23.07750543
  13.57501086 16.29000000 24.43500000
  14.93248914 17.64749457 25.79249457
  16.29000000 16.29000000 27.14998914
  17.64749457 17.64749457 28.50750000
   5.42999457  5.42999457  0.00000000
   6.78750543  6.78750543  1.35751086
   8.14500000  5.42999457  2.71500543
   9.50249457  6.78750543  4.07250000
  10.85998914  5.42999457  5.42999457
  12.21750000  6.78750543  6.78750543
  13.57499457  5.42999457  8.14500000
  14.93250543  6.78750543  9.50251086
  16.29000000  5.42999457 10.86000543
  17.64749457  6.78750543 12.21750000
  19.00498914  5.42999457 13.57499457
  20.36250000  6.78750543 14.93250543
   5.42999457  8.14500000  2.71500543
   6.78750543  9.50249457  4.07250000
   8.14500000  8.14500000  5.43001086
   9.50249457  9.50249457  6.78748914
  10.85998914  8.14500000  8.14500000
  12.21750000  9.50249457  9.50249457
  13.57499457  8.14500000 10.86000543
  14.93250543  9.50249457 12.21750000
  16.29000000  8.14500000 13.57501086
  17.64749457  9.50249457 14.93248914
  19.00498914  8.14500000 16.29000000
  20.36250000  9.50249457 17.64749457
   5.42999457 10.85998914  5.42999457
   6.78750543 12.21750000  6.78750543
   8.14500000 10.85998914  8.14500000
   9.50249457 12.21750000  9.50249457
  10.85998914 10.85998914 10.85998914
  12.21750000 12.21750000 12.21750000
  13.57499457 10.85998914 13.57499457
  14.93250543 12.21750000 14.93250543
  16.29000000 10.85998914 16.29000000
  17.64749457 12.21750000 17.64749457
  19.00498914 10.85998914 19.00498914
  20.36250000 12.21750000 20.36250000
   5.42999457 13.57499457  8.14500000
   6.78750543 14.93250543  9.50251086
   8.14500000 13.57499457 10.86000543
   9.50249457 14.93250543 12.21750000
  10.85998914 13.57499457 13.57499457
  12.21750000 14.93250543 14.93250543
  13.57499457 13.57499457 16.29000000
  14.93250543 14.93250543 17.64751086
  16.29000000 13.57499457 19.00500543
  17.64749457 14.93250543 20.36250000
  19.00498914 13.57499457 21.71999457
  20.36250000 14.93250543 23.07750543
   5.42999457 16.29000000 10.86000543
   6.78750543 17.64749457 12.21750000
   8.14500000 16.29000000 13.57501086
   9.50249457 17.64749457 14.93248914
  10.85998914 16.29000000 16.29000000
  12.21750000 17.64749457 17.64749457
  13.57499457 16.29000000 19.00500543
  14.93250543 17.64749457 20.36250000
  16.29000000 16.29000000 21.72001086
  17.64749457 17.64749457 23.07748914
  19.00498914 16.29000000 24.43500000
  20.36250000 17.64749457 25.79249457
   5.42999457 19.00498914 13.57499457
   6.78750543 20.36250000 14.93250543
   8.14500000 19.00498914 16.29000000
   9.50249457 20.36250000 17.64749457
  10.85998914 19.00498914 19.00498914
  12.21750000 20.36250000 20.36250000
  13.57499457 19.00498914 21.71999457
  14.93250543 20.36250000 23.07750543
  16.29000000 19.00498914 24.43500000
  17.64749457 20.36250000 25.79249457
  19.00498914 19.00498914 27.14998914
  20.36250000 20.36250000 28.50750000
   8.14500000  8.14500000  0.00000000
   9.50251086  9.50251086  1.35751086
  10.86000543  8.14500000  2.71500543
  12.21750000  9.50251086  4.07250000
  13.57499457  8.14500000  5.42999457
  14.93250543  9.50251086  6.78750543
  16.29000000  8.14500000  8.14500000
  17.64751086  9.50251086  9.50251086
  19.00500543  8.14500000 10.86000543
  20.36250000  9.50251086 12.21750000
  21.71999457  8.14500000 13.57499457
  23.07750543  9.50251086 14.93250543
   8.14500000 10.86000543  2.71500543
   9.50251086 12.21750000  4.07250000
  10.86000543 10.86000543  5.43001086
  12.21750000 12.21750000  6.78748914
  13.57499457 10.86000543  8.14500000
  14.93250543 12.21750000  9.50249457
  16.29000000 10.86000543 10.86000543
  17.64751086 12.21750000 12.21750000
  19.00500543 10.86000543 13.57501086
  20.36250000 12.21750000 14.93248914
  21.71999457 10.86000543 16.29000000
  23.07750543 12.21750000 17.64749457
   8.14500000 13.57499457  5.42999457
   9.50251086 14.93250543  6.78750543
  10.86000543 13.57499457  8.14500000
  12.21750000 14.93250543  9.50249457
  13.57499457 13.57499457 10.85998914
  14.93250543 14.93250543 12.21750000
  16.29000000 13.57499457 13.57499457
  17.64751086 14.93250543 14.93250543
  19.00500543 13.57499457 16.29000000
  20.36250000 14.93250543 17.64749457
  21.71999457 13.57499457 19.00498914
  23.07750543 14.93250543 20.36250000
   8.14500000 16.29000000  8.14500000
   9.50251086 17.64751086  9.50251086
  10.86000543 16.29000000 10.86000543
  12.21750000 17.64751086 12.21750000
  13.57499457 16.29000000 13.57499457
  14.93250543 17.64751086 14.93250543
  16.29000000 16.29000000 16.29000000
  17.64751086 17.64751086 17.64751086
  19.00500543 16.29000000 19.00500543
  20.36250000 17.64751086 20.36250000
  21.71999457 16.29000000 21.71999457
  23.07750543 17.64751086 23.07750543
   8.14500000 19.00500543 10.86000543
   9.50251086 20.36250000 12.21750000
  10.86000543 19.00500543 13.57501086
  12.21750000 20.36250000 14.93248914
  13.57499457 19.00500543 16.29000000
  14.93250543 20.36250000 17.64749457
  16.29000000 19.00500543 19.00500543
  17.64751086 20.36250000 20.36250000
  19.00500543 19.00500543 21.72001086
  20.36250000 20.36250000 23.07748914
  21.71999457 19.00500543 24.43500000
  23.07750543 20.36250000 25.79249457
   8.14500000 21.71999457 13.57499457
   9.50251086 23.07750543 14.93250543
  10.86000543 21.71999457 16.29000000
  12.21750000 23.07750543 17.64749457
  13.57499457 21.71999457 19.00498914
  14.93250543 23.07750543 20.36250000
  16.29000000 21.71999457 21.71999457
  17.64751086 23.07750543 23.07750543
  19.00500543 21.71999457 24.43500000
  20.36250000 23.07750543 25.79249457
  21.71999457 21.71999457 27.14998914
  23.07750543 23.07750543 28.50750000
  10.86000543 10.86000543  0.00000000
  12.21750000 12.21750000  1.35751086
  13.57501086 10.86000543  2.71500543
  14.93248914 12.21750000  4.07250000
  16.29000000 10.86000543  5.42999457
  17.64749457 12.21750000  6.78750543
  19.00500543 10.86000543  8.14500000
  20.36250000 12.21750000  9.50251086
  21.72001086 10.86000543 10.86000543
  23.07748914 12.21750000 12.21750000
  24.43500000 10.86000543 13.57499457
  25.79249457 12.21750000 14.93250543
  10.86000543 13.57501086  2.71500543
  12.21750000 14.93248914  4.07250000
  13.57501086 13.57501086  5.43001086
  14.93248914 14.93248914  6.78748914
  16.29000000 13.57501086  8.14500000
  17.64749457 14.93248914  9.50249457
  19.00500543 13.57501086 10.86000543
  20.36250000 14.93248914 12.21750000
  21.72001086 13.57501086 13.57501086
  23.07748914 14.93248914 14.93248914
  24.43500000 13.57501086 16.29000000
  25.79249457 14.93248914 17.64749457
  10.86000543 16.29000000  5.42999457
  12.21750000 17.64749457  6.78750543
  13.57501086 16.29000000  8.14500000
  14.93248914 17.64749457  9.50249457
  16.29000000 16.29000000 10.85998914
  17.64749457 17.64749457 12.21750000
  19.00500543 16.29000000 13.57499457
  20.36250000 17.64749457 14.93250543
  21.72001086 16.29000000 16.29000000
  23.07748914 17.64749457 17.64749457
  24.43500000 16.29000000 19.00498914
  25.79249457 17.64749457 20.36250000
  10.86000543 19.00500543  8.14500000
  12.21750000 20.36250000  9.50251086
  13.57501086 19.00500543 10.86000543
  14.93248914 20.36250000 12.21750000
  16.29000000 19.00500543 13.57499457
  17.64749457 20.36250000 14.93250543
  19.00500543 19.00500543 16.29000000
  20.36250000 20.36250000 17.64751086
  21.72001086 19.00500543 19.00500543
  23.07748914 20.36250000 20.36250000
  24.43500000 19.00500543 21.71999457
  25.79249457 20.36250000 23.07750543
  10.86000543 21.72001086 10.86000543
  12.21750000 23.07748914 12.21750000
  13.57501086 21.72001086 13.57501086
  14.93248914 23.07748914 14.93248914
  16.29000000 21.72001086 16.29000000
  17.64749457 23.07748914 17.64749457
  19.00500543 21.72001086 19.00500543
  20.36250000 23.07748914 20.36250000
  21.72001086 21.72001086 21.72001086
  23.07748914 23.07748914 23.07748914
  24.43500000 21.72001086 24.43500000
  25.79249457 23.07748914 25.79249457
  10.86000543 24.43500000 13.57499457
  12.21750000 25.79249457 14.93250543
  13.57501086 24.43500000 16.29000000
  14.93248914 25.79249457 17.64749457
  16.29000000 24.43500000 19.00498914
  17.64749457 25.79249457 20.36250000
  19.00500543 24.43500000 21.71999457
  20.36250000 25.79249457 23.07750543
  21.72001086 24.43500000 24.43500000
  23.07748914 25.79249457 25.79249457
  24.43500000 24.43500000 27.14998914
  25.79249457 25.79249457 28.50750000
  13.57499457 13.57499457  0.00000000
  14.93250543 14.93250543  1.35751086
  16.29000000 13.57499457  2.71500543
  17.64749457 14.93250543  4.07250000
  19.00498914 13.57499457  5.42999457
  20.36250000 14.93250543  6.78750543
  21.71999457 13.57499457  8.14500000
  23.07750543 14.93250543  9.50251086
  24.43500000 13.57499457 10.86000543
  25.79249457 14.93250543 12.21750000
  27.14998914 13.57499457 13.57499457
  28.50750000 14.93250543 14.93250543
  13.57499457 16.29000000  2.71500543
  14.93250543 17.64749457  4.07250000
  16.29000000 16.29000000  5.43001086
  17.64749457 17.64749457  6.78748914
  19.00498914 16.29000000  8.14500000
  20.36250000 17.64749457  9.50249457
  21.71999457 16.29000000 10.86000543
  23.07750543 17.64749457 12.21750000
  24.43500000 16.29000000 13.57501086
  25.79249457 17.64749457 14.93248914
  27.14998914 16.29000000 16.29000000
  28.50750000 17.64749457 17.64749457
  13.57499457 19.00498914  5.42999457
  14.93250543 20.36250000  6.78750543
  16.29000000 19.00498914  8.14500000
  17.64749457 20.36250000  9.50249457
  19.00498914 19.00498914 10.85998914
  20.36250000 20.36250000 12.21750000
  21.71999457 19.00498914 13.57499457
  23.07750543 20.36250000 14.93250543
  24.43500000 19.00498914 16.29000000
  25.79249457 20.36250000 17.64749457
  27.14998914 19.00498914 19.00498914
  28.50750000 20.36250000 20.36250000
  13.57499457 21.71999457  8.14500000
  14.93250543 23.07750543  9.50251086
  16.29000000 21.71999457 10.86000543
  17.64749457 23.07750543 12.21750000
  19.00498914 21.71999457 13.57499457
  20.36250000 23.07750543 14.93250543
  21.71999457 21.71999457 16.29000000
  23.07750543 23.07750543 17.64751086
  24.43500000 21.71999457 19.00500543
  25.79249457 23.07750543 20.36250000
  27.14998914 21.71999457 21.71999457
  28.50750000 23.07750543 23.07750543
  13.57499457 24.43500000 10.86000543
  14.93250543 25.79249457 12.21750000
  16.29000000 24.43500000 13.57501086
  17.64749457 25.79249457 14.93248914
  19.00498914 24.43500000 16.29000000
  20.36250000 25.79249457 17.64749457
  21.71999457 24.43500000 19.00500543
  23.07750543 25.79249457 20.36250000
  24.43500000 24.43500000 21.72001086
  25.79249457 25.79249457 23.07748914
  27.14998914 24.43500000 24.43500000
  28.50750000 25.79249457 25.79249457
  13.57499457 27.14998914 13.57499457
  14.93250543 28.50750000 14.93250543
  16.29000000 27.14998914 16.29000000
  17.64749457 28.50750000 17.64749457
  19.00498914 27.14998914 19.00498914
  20.36250000 28.50750000 20.36250000
  21.71999457 27.14998914 21.71999457
  23.07750543 28.50750000 23.07750543
  24.43500000 27.14998914 24.43500000
  25.79249457 28.50750000 25.79249457
  27.14998914 27.14998914 27.14998914
  28.50750000 28.50750000 28.50750000
 


--------------------------------------------------------------------------------------------------------


 k-point     1 :   0.0000 0.0000 0.0000  plane waves:  157117

 maximum and minimum number of plane-waves per node :    157117   157117

 maximum number of plane-waves:    157117
 maximum index in each direction: 
   IXMAX=   37   IYMAX=   37   IZMAX=   37
   IXMIN=  -37   IYMIN=  -37   IZMIN=  -37


 serial   3D FFT for wavefunctions
 parallel 3D FFT for charge:
    minimum data exchange during FFTs selected (reduces bandwidth)


 total amount of memory used by VASP MPI-rank0  1144761. kBytes
=======================================================================

   base                                    :      30000. kBytes
   nonlr-proj                              :      57210. kBytes
   fftplans                                :     123807. kBytes
   grid                                    :     236160. kBytes
   one-center                              :       1327. kBytes
   wavefun                                 :     696257. kBytes
 
     INWAV:  cpu time      0.0001: real time      0.0002
 Broyden mixing: mesh for mixing (old mesh)
   NGX = 75   NGY = 75   NGZ = 75
  (NGX  =240   NGY  =240   NGZ  =240)
  gives a total of 421875 points

 initial charge density was supplied:
 charge density of overlapping atoms calculated
 number of electron    1728.0000000 magnetization 
 keeping initial charge density in first step


--------------------------------------------------------------------------------------------------------


 Maximum index for non-local projection operator          1505
 Maximum index for augmentation-charges          1640 (set IRDMAX)


--------------------------------------------------------------------------------------------------------


 First call to EWALD:  gamma=   0.086
 Maximum number of real-space cells   3x   3x   3
 Maximum number of reciprocal cells   3x   3x   3

    FEWALD:  cpu time      1.9148: real time      1.9194


--------------------------------------- Ionic step        1  -------------------------------------------




--------------------------------------- Iteration      1(   1)  ---------------------------------------


    POTLOK:  cpu time     12.9072: real time     13.2564
    SETDIJ:  cpu time      0.0805: real time      0.0808
     EDDAV:  cpu time      1.2147: real time      1.2214
       DOS:  cpu time      0.0006: real time      0.0006
    --------------------------------------------
      LOOP:  cpu time     14.2035: real time     14.5596

 eigenvalue-minimisations  :  2168
 total energy-change (2. order) : 0.4036525E+04  (-0.5668496E+05)
 number of electron    1728.0000000 magnetization 
 augmentation part     1728.0000000 magnetization 

 Free energy of the ion-electron system (eV)
  ---------------------------------------------------
  alpha Z        PSCENC =       726.65580881
  Ewald energy   TEWEN  =    -49369.75134002
  -Hartree energ DENC   =     -2376.23380368
  -exchange      EXHF   =         0.00000000
  -V(xc)+E(xc)   XCENC  =     -4018.00192948
  PAW double counting   =     38069.48143363   -30469.18368525
  entropy T*S    EENTRO =        -0.10563312
  eigenvalues    EBANDS =      6949.26153219
  atomic energy  EATOM  =     44524.40237064
  Solvation  Ediel_sol  =         0.00000000
  ---------------------------------------------------
  free energy    TOTEN  =      4036.52475373 eV

  energy without entropy =     4036.63038685  energy(sigma->0) =     4036.57757029


--------------------------------------------------------------------------------------------------------




--------------------------------------- Iteration      1(   2)  ---------------------------------------


     EDDAV:  cpu time      1.2303: real time      1.2347
       DOS:  cpu time      0.0007: real time      0.0008
    --------------------------------------------
      LOOP:  cpu time      1.2309: real time      1.2353

 eigenvalue-minimisations  :  2564
 total energy-change (2. order) :-0.5941304E+04  (-0.5649030E+04)
 number of electron    1728.0000000 magnetization 
 augmentation part     1728.0000000 magnetization 

 Free energy of the ion-electron system (eV)
  ---------------------------------------------------
  alpha Z        PSCENC =       726.65580881
  Ewald energy   TEWEN  =    -49369.75134002
  -Hartree energ DENC   =     -2376.23380368
  -exchange      EXHF   =         0.00000000
  -V(xc)+E(xc)   XCENC  =     -4018.00192948
  PAW double counting   =     38069.48143363   -30469.18368525
  entropy T*S    EENTRO =        -0.00001330
  eigenvalues    EBANDS =      1007.85172246
  atomic energy  EATOM  =     44524.40237064
  Solvation  Ediel_sol  =         0.00000000
  ---------------------------------------------------
  free energy    TOTEN  =     -1904.77943619 eV

  energy without entropy =    -1904.77942288  energy(sigma->0) =    -1904.77942953


--------------------------------------------------------------------------------------------------------




--------------------------------------- Iteration      1(   3)  ---------------------------------------


     EDDAV:  cpu time      1.2584: real time      1.2632
       DOS:  cpu time      0.0007: real time      0.0008
    --------------------------------------------
      LOOP:  cpu time      1.2591: real time      1.2639

 eigenvalue-minimisations  :  2640
 total energy-change (2. order) :-0.4595295E+03  (-0.4505823E+03)
 number of electron    1728.0000000 magnetization 
 augmentation part     1728.0000000 magnetization 

 Free energy of the ion-electron system (eV)
  ---------------------------------------------------
  alpha Z        PSCENC =       726.65580881
  Ewald energy   TEWEN  =    -49369.75134002
  -Hartree energ DENC   =     -2376.23380368
  -exchange      EXHF   =         0.00000000
  -V(xc)+E(xc)   XCENC  =     -4018.00192948
  PAW double counting   =     38069.48143363   -30469.18368525
  entropy T*S    EENTRO =        -0.00000000
  eigenvalues    EBANDS =       548.32216461
  atomic energy  EATOM  =     44524.40237064
  Solvation  Ediel_sol  =         0.00000000
  ---------------------------------------------------
  free energy    TOTEN  =     -2364.30898074 eV

  energy without entropy =    -2364.30898074  energy(sigma->0) =    -2364.30898074


--------------------------------------------------------------------------------------------------------




--------------------------------------- Iteration      1(   4)  ---------------------------------------


     EDDAV:  cpu time      1.2143: real time      1.2184
       DOS:  cpu time      0.0005: real time      0.0005
    --------------------------------------------
      LOOP:  cpu time      1.2147: real time      1.2189

 eigenvalue-minimisations  :  2536
 total energy-change (2. order) :-0.1262334E+02  (-0.1252856E+02)
 number of electron    1728.0000000 magnetization 
 augmentation part     1728.0000000 magnetization 

 Free energy of the ion-electron system (eV)
  ---------------------------------------------------
  alpha Z        PSCENC =       726.65580881
  Ewald energy   TEWEN  =    -49369.75134002
  -Hartree energ DENC   =     -2376.23380368
  -exchange      EXHF   =         0.00000000
  -V(xc)+E(xc)   XCENC  =     -4018.00192948
  PAW double counting   =     38069.48143363   -30469.18368525
  entropy T*S    EENTRO =        -0.00000000
  eigenvalues    EBANDS =       535.69882849
  atomic energy  EATOM  =     44524.40237064
  Solvation  Ediel_sol  =         0.00000000
  ---------------------------------------------------
  free energy    TOTEN  =     -2376.93231686 eV

  energy without entropy =    -2376.93231686  energy(sigma->0) =    -2376.93231686


--------------------------------------------------------------------------------------------------------




--------------------------------------- Iteration      1(   5)  ---------------------------------------


     EDDAV:  cpu time      1.2601: real time      1.2657
       DOS:  cpu time      0.0008: real time      0.0008
    CHARGE:  cpu time      0.1608: real time      0.1626
    MIXING:  cpu time      0.0555: real time      0.0560
    --------------------------------------------
      LOOP:  cpu time      1.4770: real time      1.4849

 eigenvalue-minimisations  :  2664
 total energy-change (2. order) :-0.4766944E+00  (-0.4757032E+00)
 number of electron    1728.0000871 magnetization 
 augmentation part     -101.5232120 magnetization 

 Broyden mixing:
  rms(total) = 0.71962E+01    rms(broyden)= 0.71962E+01
  rms(prec ) = 0.74761E+01
  weight for this iteration     100.00

 Free energy of the ion-electron system (eV)
  ---------------------------------------------------
  alpha Z        PSCENC =       726.65580881
  Ewald energy   TEWEN  =    -49369.75134002
  -Hartree energ DENC   =     -2376.23380368
  -exchange      EXHF   =         0.00000000
  -V(xc)+E(xc)   XCENC  =     -4018.00192948
  PAW double counting   =     38069.48143363   -30469.18368525
  entropy T*S    EENTRO =        -0.00000000
  eigenvalues    EBANDS =       535.22213408
  atomic energy  EATOM  =     44524.40237064
  Solvation  Ediel_sol  =         0.00000000
  ---------------------------------------------------
  free energy    TOTEN  =     -2377.40901127 eV

  energy without entropy =    -2377.40901127  energy(sigma->0) =    -2377.40901127


--------------------------------------------------------------------------------------------------------




--------------------------------------- Iteration      1(   6)  ---------------------------------------


    POTLOK:  cpu time      0.0207: real time      0.0209
    SETDIJ:  cpu time      0.0778: real time      0.0781
     EDDAV:  cpu time      1.1887: real time      1.1926
       DOS:  cpu time      0.0004: real time      0.0005
    CHARGE:  cpu time      0.1423: real time      0.1442
    MIXING:  cpu time      0.0500: real time      0.0501
    --------------------------------------------
      LOOP:  cpu time      1.4800: real time      1.4864

 eigenvalue-minimisations  :  2448
 total energy-change (2. order) : 0.2757140E+02  (-0.1581122E+01)
 number of electron    1728.0000860 magnetization 
 augmentation part     -100.2755055 magnetization 

 Broyden mixing:
  rms(total) = 0.44190E+01    rms(broyden)= 0.44190E+01
  rms(prec ) = 0.45783E+01
  weight for this iteration     100.00

 eigenvalues of (default mixing * dielectric matrix)
  average eigenvalue GAMMA=   2.5819
  2.5819

 Free energy of the ion-electron system (eV)
  ---------------------------------------------------
  alpha Z        PSCENC =       726.65580881
  Ewald energy   TEWEN  =    -49369.75134002
  -Hartree energ DENC   =     -2703.57257289
  -exchange      EXHF   =         0.00000000
  -V(xc)+E(xc)   XCENC  =     -3966.34778994
  PAW double counting   =     82080.51247009   -74504.30664401
  entropy T*S    EENTRO =        -0.00000000
  eigenvalues    EBANDS =       862.57008574
  atomic energy  EATOM  =     44524.40237064
  Solvation  Ediel_sol  =         0.00000000
  ---------------------------------------------------
  free energy    TOTEN  =     -2349.83761158 eV

  energy without entropy =    -2349.83761158  energy(sigma->0) =    -2349.83761158


--------------------------------------------------------------------------------------------------------




--------------------------------------- Iteration      1(   7)  ---------------------------------------


    POTLOK:  cpu time      0.0138: real time      0.0141
    SETDIJ:  cpu time      0.0849: real time      0.0852
     EDDAV:  cpu time      1.1840: real time      1.1879
       DOS:  cpu time      0.0010: real time      0.0010
    CHARGE:  cpu time      0.1424: real time      0.1441
    MIXING:  cpu time      0.0526: real time      0.0528
    --------------------------------------------
      LOOP:  cpu time      1.4788: real time      1.4852

 eigenvalue-minimisations  :  2400
 total energy-change (2. order) : 0.1243163E+02  (-0.3473371E+01)
 number of electron    1728.0000845 magnetization 
 augmentation part      -98.6018001 magnetization 

 Broyden mixing:
  rms(total) = 0.27376E+00    rms(broyden)= 0.27376E+00
  rms(prec ) = 0.29740E+00
  weight for this iteration     100.00

 eigenvalues of (default mixing * dielectric matrix)
  average eigenvalue GAMMA=   2.2461
  2.2461  2.2461

 Free energy of the ion-electron system (eV)
  ---------------------------------------------------
  alpha Z        PSCENC =       726.65580881
  Ewald energy   TEWEN  =    -49369.75134002
  -Hartree energ DENC   =     -3269.21558816
  -exchange      EXHF   =         0.00000000
  -V(xc)+E(xc)   XCENC  =     -3875.29840546
  PAW double counting   =    194141.99885567  -186598.49640988
  entropy T*S    EENTRO =        -0.00000000
  eigenvalues    EBANDS =      1382.29872642
  atomic energy  EATOM  =     44524.40237064
  Solvation  Ediel_sol  =         0.00000000
  ---------------------------------------------------
  free energy    TOTEN  =     -2337.40598198 eV

  energy without entropy =    -2337.40598198  energy(sigma->0) =    -2337.40598198


--------------------------------------------------------------------------------------------------------




--------------------------------------- Iteration      1(   8)  ---------------------------------------


    POTLOK:  cpu time      0.0144: real time      0.0149
    SETDIJ:  cpu time      0.0819: real time      0.0822
     EDDAV:  cpu time      1.1622: real time      1.1661
       DOS:  cpu time      0.0005: real time      0.0005
    CHARGE:  cpu time      0.1411: real time      0.1429
    MIXING:  cpu time      0.0534: real time      0.0536
    --------------------------------------------
      LOOP:  cpu time      1.4535: real time      1.4602

 eigenvalue-minimisations  :  2384
 total energy-change (2. order) :-0.1421944E+00  (-0.1935442E+00)
 number of electron    1728.0000848 magnetization 
 augmentation part      -98.8709324 magnetization 

 Broyden mixing:
  rms(total) = 0.92462E-01    rms(broyden)= 0.92462E-01
  rms(prec ) = 0.99260E-01
  weight for this iteration     100.00

 eigenvalues of (default mixing * dielectric matrix)
  average eigenvalue GAMMA=   2.2027
  2.7017  1.9532  1.9532

 Free energy of the ion-electron system (eV)
  ---------------------------------------------------
  alpha Z        PSCENC =       726.65580881
  Ewald energy   TEWEN  =    -49369.75134002
  -Hartree energ DENC   =     -3217.92264977
  -exchange      EXHF   =         0.00000000
  -V(xc)+E(xc)   XCENC  =     -3880.95510290
  PAW double counting   =    188785.72833466  -181234.29602963
  entropy T*S    EENTRO =        -0.00000000
  eigenvalues    EBANDS =      1328.59043187
  atomic energy  EATOM  =     44524.40237064
  Solvation  Ediel_sol  =         0.00000000
  ---------------------------------------------------
  free energy    TOTEN  =     -2337.54817633 eV

  energy without entropy =    -2337.54817633  energy(sigma->0) =    -2337.54817633


--------------------------------------------------------------------------------------------------------




--------------------------------------- Iteration      1(   9)  ---------------------------------------


    POTLOK:  cpu time      0.0183: real time      0.0184
    SETDIJ:  cpu time      0.0767: real time      0.0770
     EDDAV:  cpu time      1.2568: real time      1.2610
       DOS:  cpu time      0.0005: real time      0.0005
    CHARGE:  cpu time      0.1436: real time      0.1456
    MIXING:  cpu time      0.0540: real time      0.0542
    --------------------------------------------
      LOOP:  cpu time      1.5500: real time      1.5568

 eigenvalue-minimisations  :  2616
 total energy-change (2. order) :-0.4235974E-01  (-0.7333033E-02)
 number of electron    1728.0000848 magnetization 
 augmentation part      -98.8771883 magnetization 

 Broyden mixing:
  rms(total) = 0.79784E-01    rms(broyden)= 0.79784E-01
  rms(prec ) = 0.80970E-01
  weight for this iteration     100.00

 eigenvalues of (default mixing * dielectric matrix)
  average eigenvalue GAMMA=   2.5800
  4.4981  1.0597  2.1283  2.6340

 Free energy of the ion-electron system (eV)
  ---------------------------------------------------
  alpha Z        PSCENC =       726.65580881
  Ewald energy   TEWEN  =    -49369.75134002
  -Hartree energ DENC   =     -3231.95046378
  -exchange      EXHF   =         0.00000000
  -V(xc)+E(xc)   XCENC  =     -3878.58041208
  PAW double counting   =    189935.21531776  -182384.08849117
  entropy T*S    EENTRO =        -0.00000000
  eigenvalues    EBANDS =      1340.50667376
  atomic energy  EATOM  =     44524.40237064
  Solvation  Ediel_sol  =         0.00000000
  ---------------------------------------------------
  free energy    TOTEN  =     -2337.59053608 eV

  energy without entropy =    -2337.59053608  energy(sigma->0) =    -2337.59053608


--------------------------------------------------------------------------------------------------------




--------------------------------------- Iteration      1(  10)  ---------------------------------------


    POTLOK:  cpu time      0.0193: real time      0.0196
    SETDIJ:  cpu time      0.0769: real time      0.0772
     EDDAV:  cpu time      1.1565: real time      1.1603
       DOS:  cpu time      0.0008: real time      0.0008
    CHARGE:  cpu time      0.1444: real time      0.1464
    MIXING:  cpu time      0.0541: real time      0.0542
    --------------------------------------------
      LOOP:  cpu time      1.4519: real time      1.4585

 eigenvalue-minimisations  :  2360
 total energy-change (2. order) :-0.1610244E-01  (-0.4340220E-02)
 number of electron    1728.0000848 magnetization 
 augmentation part      -98.8866022 magnetization 

 Broyden mixing:
  rms(total) = 0.65704E-01    rms(broyden)= 0.65704E-01
  rms(prec ) = 0.65866E-01
  weight for this iteration     100.00

 eigenvalues of (default mixing * dielectric matrix)
  average eigenvalue GAMMA=   1.9060
  3.0033  2.3366  2.1870  1.0016  1.0016

 Free energy of the ion-electron system (eV)
  ---------------------------------------------------
  alpha Z        PSCENC =       726.65580881
  Ewald energy   TEWEN  =    -49369.75134002
  -Hartree energ DENC   =     -3235.39025516
  -exchange      EXHF   =         0.00000000
  -V(xc)+E(xc)   XCENC  =     -3878.04824499
  PAW double counting   =    186011.17685006  -178459.66481242
  entropy T*S    EENTRO =        -0.00000000
  eigenvalues    EBANDS =      1343.01298456
  atomic energy  EATOM  =     44524.40237064
  Solvation  Ediel_sol  =         0.00000000
  ---------------------------------------------------
  free energy    TOTEN  =     -2337.60663852 eV

  energy without entropy =    -2337.60663852  energy(sigma->0) =    -2337.60663852


--------------------------------------------------------------------------------------------------------




--------------------------------------- Iteration      1(  11)  ---------------------------------------


    POTLOK:  cpu time      0.0143: real time      0.0145
    SETDIJ:  cpu time      0.0818: real time      0.0821
     EDDAV:  cpu time      1.1973: real time      1.2013
       DOS:  cpu time      0.0005: real time      0.0005
    CHARGE:  cpu time      0.1450: real time      0.1472
    MIXING:  cpu time      0.0573: real time      0.0575
    --------------------------------------------
      LOOP:  cpu time      1.4962: real time      1.5030

 eigenvalue-minimisations  :  2480
 total energy-change (2. order) :-0.9362924E-03  (-0.2631318E-03)
 number of electron    1728.0000848 magnetization 
 augmentation part      -98.8913538 magnetization 

 Broyden mixing:
  rms(total) = 0.37646E-02    rms(broyden)= 0.37646E-02
  rms(prec ) = 0.38975E-02
  weight for this iteration     100.00

 eigenvalues of (default mixing * dielectric matrix)
  average eigenvalue GAMMA=   2.0593
  2.9367  2.7497  2.7497  2.0598  1.0096  0.8504

 Free energy of the ion-electron system (eV)
  ---------------------------------------------------
  alpha Z        PSCENC =       726.65580881
  Ewald energy   TEWEN  =    -49369.75134002
  -Hartree energ DENC   =     -3234.94769456
  -exchange      EXHF   =         0.00000000
  -V(xc)+E(xc)   XCENC  =     -3878.03677293
  PAW double counting   =    187831.57085094  -180280.02145558
  entropy T*S    EENTRO =        -0.00000000
  eigenvalues    EBANDS =      1342.52065788
  atomic energy  EATOM  =     44524.40237064
  Solvation  Ediel_sol  =         0.00000000
  ---------------------------------------------------
  free energy    TOTEN  =     -2337.60757481 eV

  energy without entropy =    -2337.60757481  energy(sigma->0) =    -2337.60757481


--------------------------------------------------------------------------------------------------------




--------------------------------------- Iteration      1(  12)  ---------------------------------------


    POTLOK:  cpu time      0.0134: real time      0.0138
    SETDIJ:  cpu time      0.0772: real time      0.0775
     EDDAV:  cpu time      1.2400: real time      1.2441
       DOS:  cpu time      0.0005: real time      0.0005
    CHARGE:  cpu time      0.1415: real time      0.1433
    MIXING:  cpu time      0.0605: real time      0.0607
    --------------------------------------------
      LOOP:  cpu time      1.5331: real time      1.5399

 eigenvalue-minimisations  :  2592
 total energy-change (2. order) :-0.1018931E-03  (-0.1141971E-04)
 number of electron    1728.0000848 magnetization 
 augmentation part      -98.8887446 magnetization 

 Broyden mixing:
  rms(total) = 0.46499E-02    rms(broyden)= 0.46499E-02
  rms(prec ) = 0.47044E-02
  weight for this iteration     100.00

 eigenvalues of (default mixing * dielectric matrix)
  average eigenvalue GAMMA=   1.9178
  3.2813  2.7096  2.3206  2.3206  0.9282  0.9282  0.9363

 Free energy of the ion-electron system (eV)
  ---------------------------------------------------
  alpha Z        PSCENC =       726.65580881
  Ewald energy   TEWEN  =    -49369.75134002
  -Hartree energ DENC   =     -3235.55027878
  -exchange      EXHF   =         0.00000000
  -V(xc)+E(xc)   XCENC  =     -3877.99535521
  PAW double counting   =    187921.73784823  -180370.20764488
  entropy T*S    EENTRO =        -0.00000000
  eigenvalues    EBANDS =      1343.10091450
  atomic energy  EATOM  =     44524.40237064
  Solvation  Ediel_sol  =         0.00000000
  ---------------------------------------------------
  free energy    TOTEN  =     -2337.60767670 eV

  energy without entropy =    -2337.60767670  energy(sigma->0) =    -2337.60767670


--------------------------------------------------------------------------------------------------------




--------------------------------------- Iteration      1(  13)  ---------------------------------------


    POTLOK:  cpu time      0.0144: real time      0.0145
    SETDIJ:  cpu time      0.0800: real time      0.0803
     EDDAV:  cpu time      1.2011: real time      1.2051
       DOS:  cpu time      0.0005: real time      0.0005
    CHARGE:  cpu time      0.1423: real time      0.1443
    MIXING:  cpu time      0.0615: real time      0.0616
    --------------------------------------------
      LOOP:  cpu time      1.4998: real time      1.5063

 eigenvalue-minimisations  :  2456
 total energy-change (2. order) : 0.2000624E-04  (-0.3166278E-05)
 number of electron    1728.0000848 magnetization 
 augmentation part      -98.8892619 magnetization 

 Broyden mixing:
  rms(total) = 0.61722E-03    rms(broyden)= 0.61722E-03
  rms(prec ) = 0.62038E-03
  weight for this iteration     100.00

 eigenvalues of (default mixing * dielectric matrix)
  average eigenvalue GAMMA=   1.8128
  3.2288  2.6295  2.6295  2.1829  0.9866  0.8750  0.9850  0.9850

 Free energy of the ion-electron system (eV)
  ---------------------------------------------------
  alpha Z        PSCENC =       726.65580881
  Ewald energy   TEWEN  =    -49369.75134002
  -Hartree energ DENC   =     -3235.39206616
  -exchange      EXHF   =         0.00000000
  -V(xc)+E(xc)   XCENC  =     -3878.03426479
  PAW double counting   =    187807.26282907  -180255.70684764
  entropy T*S    EENTRO =        -0.00000000
  eigenvalues    EBANDS =      1342.95585339
  atomic energy  EATOM  =     44524.40237064
  Solvation  Ediel_sol  =         0.00000000
  ---------------------------------------------------
  free energy    TOTEN  =     -2337.60765670 eV

  energy without entropy =    -2337.60765670  energy(sigma->0) =    -2337.60765670


--------------------------------------------------------------------------------------------------------




--------------------------------------- Iteration      1(  14)  ---------------------------------------


    POTLOK:  cpu time      0.0145: real time      0.0148
    SETDIJ:  cpu time      0.0771: real time      0.0774
     EDDAV:  cpu time      0.9076: real time      0.9106
       DOS:  cpu time      0.0008: real time      0.0008
    CHARGE:  cpu time      0.1426: real time      0.1446
    MIXING:  cpu time      0.0625: real time      0.0627
    --------------------------------------------
      LOOP:  cpu time      1.2051: real time      1.2109

 eigenvalue-minimisations  :  1624
 total energy-change (2. order) :-0.2059309E-05  (-0.3580004E-07)
 number of electron    1728.0000848 magnetization 
 augmentation part      -98.8892932 magnetization 

 Broyden mixing:
  rms(total) = 0.53998E-03    rms(broyden)= 0.53998E-03
  rms(prec ) = 0.54291E-03
  weight for this iteration     100.00

 eigenvalues of (default mixing * dielectric matrix)
  average eigenvalue GAMMA=   1.7949
  3.2467  2.6988  2.5076  2.1862  1.3923  1.3923  0.9747  0.8777  0.8777

 Free energy of the ion-electron system (eV)
  ---------------------------------------------------
  alpha Z        PSCENC =       726.65580881
  Ewald energy   TEWEN  =    -49369.75134002
  -Hartree energ DENC   =     -3235.39534569
  -exchange      EXHF   =         0.00000000
  -V(xc)+E(xc)   XCENC  =     -3878.03371835
  PAW double counting   =    187805.92467796  -180254.37084282
  entropy T*S    EENTRO =        -0.00000000
  eigenvalues    EBANDS =      1342.96073071
  atomic energy  EATOM  =     44524.40237064
  Solvation  Ediel_sol  =         0.00000000
  ---------------------------------------------------
  free energy    TOTEN  =     -2337.60765876 eV

  energy without entropy =    -2337.60765876  energy(sigma->0) =    -2337.60765876


--------------------------------------------------------------------------------------------------------




--------------------------------------- Iteration      1(  15)  ---------------------------------------


    POTLOK:  cpu time      0.0141: real time      0.0142
    SETDIJ:  cpu time      0.0815: real time      0.0818
     EDDAV:  cpu time      0.8210: real time      0.8237
       DOS:  cpu time      0.0007: real time      0.0007
    CHARGE:  cpu time      0.1478: real time      0.1498
    MIXING:  cpu time      0.0627: real time      0.0628
    --------------------------------------------
      LOOP:  cpu time      1.1277: real time      1.1330

 eigenvalue-minimisations  :  1384
 total energy-change (2. order) : 0.8215020E-06  (-0.1580246E-07)
 number of electron    1728.0000848 magnetization 
 augmentation part      -98.8893391 magnetization 

 Broyden mixing:
  rms(total) = 0.12492E-03    rms(broyden)= 0.12492E-03
  rms(prec ) = 0.12551E-03
  weight for this iteration     100.00

 eigenvalues of (default mixing * dielectric matrix)
  average eigenvalue GAMMA=   1.7812
  3.2704  2.7091  2.4968  2.1642  1.7299  1.5101  0.9168  0.9591  1.0278  1.0278

 Free energy of the ion-electron system (eV)
  ---------------------------------------------------
  alpha Z        PSCENC =       726.65580881
  Ewald energy   TEWEN  =    -49369.75134002
  -Hartree energ DENC   =     -3235.37875883
  -exchange      EXHF   =         0.00000000
  -V(xc)+E(xc)   XCENC  =     -3878.03605960
  PAW double counting   =    187795.10855141  -180243.55507008
  entropy T*S    EENTRO =        -0.00000000
  eigenvalues    EBANDS =      1342.94683973
  atomic energy  EATOM  =     44524.40237064
  Solvation  Ediel_sol  =         0.00000000
  ---------------------------------------------------
  free energy    TOTEN  =     -2337.60765793 eV

  energy without entropy =    -2337.60765793  energy(sigma->0) =    -2337.60765793


--------------------------------------------------------------------------------------------------------




--------------------------------------- Iteration      1(  16)  ---------------------------------------


    POTLOK:  cpu time      0.0134: real time      0.0138
    SETDIJ:  cpu time      0.0776: real time      0.0779
     EDDAV:  cpu time      0.8172: real time      0.8198
       DOS:  cpu time      0.0007: real time      0.0008
    CHARGE:  cpu time      0.1419: real time      0.1439
    MIXING:  cpu time      0.0678: real time      0.0680
    --------------------------------------------
      LOOP:  cpu time      1.1186: real time      1.1241

 eigenvalue-minimisations  :  1384
 total energy-change (2. order) : 0.6454948E-06  (-0.3786938E-08)
 number of electron    1728.0000848 magnetization 
 augmentation part      -98.8893612 magnetization 

 Broyden mixing:
  rms(total) = 0.68159E-04    rms(broyden)= 0.68159E-04
  rms(prec ) = 0.68535E-04
  weight for this iteration     100.00

 eigenvalues of (default mixing * dielectric matrix)
  average eigenvalue GAMMA=   1.6450
  3.2644  2.7065  2.4670  2.1965  1.5839  1.5839  0.9107  0.9574  1.0463  1.0463
  0.3326

 Free energy of the ion-electron system (eV)
  ---------------------------------------------------
  alpha Z        PSCENC =       726.65580881
  Ewald energy   TEWEN  =    -49369.75134002
  -Hartree energ DENC   =     -3235.37492734
  -exchange      EXHF   =         0.00000000
  -V(xc)+E(xc)   XCENC  =     -3878.03649110
  PAW double counting   =    187793.59162280  -180242.03786225
  entropy T*S    EENTRO =        -0.00000000
  eigenvalues    EBANDS =      1342.94316117
  atomic energy  EATOM  =     44524.40237064
  Solvation  Ediel_sol  =         0.00000000
  ---------------------------------------------------
  free energy    TOTEN  =     -2337.60765729 eV

  energy without entropy =    -2337.60765729  energy(sigma->0) =    -2337.60765729


--------------------------------------------------------------------------------------------------------




--------------------------------------- Iteration      1(  17)  ---------------------------------------


    POTLOK:  cpu time      0.0153: real time      0.0154
    SETDIJ:  cpu time      0.0777: real time      0.0780
     EDDAV:  cpu time      0.8162: real time      0.8189
       DOS:  cpu time      0.0004: real time      0.0005
    CHARGE:  cpu time      0.1421: real time      0.1440
    MIXING:  cpu time      0.0675: real time      0.0677
    --------------------------------------------
      LOOP:  cpu time      1.1193: real time      1.1245

 eigenvalue-minimisations  :  1384
 total energy-change (2. order) :-0.2643992E-07  (-0.6896052E-09)
 number of electron    1728.0000848 magnetization 
 augmentation part      -98.8893629 magnetization 

 Broyden mixing:
  rms(total) = 0.74330E-04    rms(broyden)= 0.74330E-04
  rms(prec ) = 0.74611E-04
  weight for this iteration     100.00

 eigenvalues of (default mixing * dielectric matrix)
  average eigenvalue GAMMA=   1.5476
  3.2636  2.7064  2.4617  2.2006  1.5617  1.5617  0.9573  0.9089  1.0484  1.0484
  0.4263  0.4263

 Free energy of the ion-electron system (eV)
  ---------------------------------------------------
  alpha Z        PSCENC =       726.65580881
  Ewald energy   TEWEN  =    -49369.75134002
  -Hartree energ DENC   =     -3235.37488474
  -exchange      EXHF   =         0.00000000
  -V(xc)+E(xc)   XCENC  =     -3878.03649117
  PAW double counting   =    187793.57531517  -180242.02156188
  entropy T*S    EENTRO =        -0.00000000
  eigenvalues    EBANDS =      1342.94312588
  atomic energy  EATOM  =     44524.40237064
  Solvation  Ediel_sol  =         0.00000000
  ---------------------------------------------------
  free energy    TOTEN  =     -2337.60765732 eV

  energy without entropy =    -2337.60765732  energy(sigma->0) =    -2337.60765732


--------------------------------------------------------------------------------------------------------




--------------------------------------- Iteration      1(  18)  ---------------------------------------


    POTLOK:  cpu time      0.0153: real time      0.0154
    SETDIJ:  cpu time      0.0771: real time      0.0773
     EDDAV:  cpu time      0.8161: real time      0.8189
       DOS:  cpu time      0.0007: real time      0.0009
    CHARGE:  cpu time      0.1458: real time      0.1480
    MIXING:  cpu time      0.0713: real time      0.0715
    --------------------------------------------
      LOOP:  cpu time      1.1262: real time      1.1320

 eigenvalue-minimisations  :  1384
 total energy-change (2. order) :-0.7309609E-08  (-0.1803308E-09)
 number of electron    1728.0000848 magnetization 
 augmentation part      -98.8893648 magnetization 

 Broyden mixing:
  rms(total) = 0.73477E-04    rms(broyden)= 0.73477E-04
  rms(prec ) = 0.73739E-04
  weight for this iteration     100.00

 eigenvalues of (default mixing * dielectric matrix)
  average eigenvalue GAMMA=   1.6606
  3.2774  2.7085  2.4102  2.2452  1.7580  1.7580  1.3343  1.3343  1.1023  1.1023
  0.9463  0.9107  0.7006

 Free energy of the ion-electron system (eV)
  ---------------------------------------------------
  alpha Z        PSCENC =       726.65580881
  Ewald energy   TEWEN  =    -49369.75134002
  -Hartree energ DENC   =     -3235.37487387
  -exchange      EXHF   =         0.00000000
  -V(xc)+E(xc)   XCENC  =     -3878.03649109
  PAW double counting   =    187793.50650054  -180241.95275660
  entropy T*S    EENTRO =        -0.00000000
  eigenvalues    EBANDS =      1342.94312426
  atomic energy  EATOM  =     44524.40237064
  Solvation  Ediel_sol  =         0.00000000
  ---------------------------------------------------
  free energy    TOTEN  =     -2337.60765732 eV

  energy without entropy =    -2337.60765732  energy(sigma->0) =    -2337.60765732


--------------------------------------------------------------------------------------------------------




--------------------------------------- Iteration      1(  19)  ---------------------------------------


    POTLOK:  cpu time      0.0145: real time      0.0146
    SETDIJ:  cpu time      0.0772: real time      0.0775
     EDDAV:  cpu time      0.8125: real time      0.8152
       DOS:  cpu time      0.0007: real time      0.0007
    CHARGE:  cpu time      0.1445: real time      0.1464
    MIXING:  cpu time      0.0770: real time      0.0772
    --------------------------------------------
      LOOP:  cpu time      1.1264: real time      1.1316

 eigenvalue-minimisations  :  1384
 total energy-change (2. order) : 0.7831659E-08  (-0.3916329E-09)
 number of electron    1728.0000848 magnetization 
 augmentation part      -98.8893640 magnetization 

 Broyden mixing:
  rms(total) = 0.12206E-04    rms(broyden)= 0.12206E-04
  rms(prec ) = 0.12985E-04
  weight for this iteration     100.00

 eigenvalues of (default mixing * dielectric matrix)
  average eigenvalue GAMMA=   1.6454
  3.2895  2.7378  2.4394  2.4394  2.3049  1.7911  1.7911  1.0608  1.0608  1.0042
  0.9280  0.9280  0.6300  0.6300

 Free energy of the ion-electron system (eV)
  ---------------------------------------------------
  alpha Z        PSCENC =       726.65580881
  Ewald energy   TEWEN  =    -49369.75134002
  -Hartree energ DENC   =     -3235.37476167
  -exchange      EXHF   =         0.00000000
  -V(xc)+E(xc)   XCENC  =     -3878.03653616
  PAW double counting   =    187792.16250023  -180240.60883253
  entropy T*S    EENTRO =        -0.00000000
  eigenvalues    EBANDS =      1342.94313338
  atomic energy  EATOM  =     44524.40237064
  Solvation  Ediel_sol  =         0.00000000
  ---------------------------------------------------
  free energy    TOTEN  =     -2337.60765732 eV

  energy without entropy =    -2337.60765732  energy(sigma->0) =    -2337.60765732


--------------------------------------------------------------------------------------------------------




--------------------------------------- Iteration      1(  20)  ---------------------------------------


    POTLOK:  cpu time      0.0175: real time      0.0177
    SETDIJ:  cpu time      0.0801: real time      0.0803
     EDDAV:  cpu time      0.8036: real time      0.8064
       DOS:  cpu time      0.0007: real time      0.0008
    --------------------------------------------
      LOOP:  cpu time      0.9022: real time      0.9053

 eigenvalue-minimisations  :  1360
 total energy-change (2. order) :-0.1764874E-07  (-0.2261251E-09)
 number of electron    1728.0000848 magnetization 
 augmentation part      -98.8893640 magnetization 

 Free energy of the ion-electron system (eV)
  ---------------------------------------------------
  alpha Z        PSCENC =       726.65580881
  Ewald energy   TEWEN  =    -49369.75134002
  -Hartree energ DENC   =     -3235.37402893
  -exchange      EXHF   =         0.00000000
  -V(xc)+E(xc)   XCENC  =     -3878.03662120
  PAW double counting   =    187791.80456140  -180240.25094126
  entropy T*S    EENTRO =        -0.00000000
  eigenvalues    EBANDS =      1342.94253322
  atomic energy  EATOM  =     44524.40237064
  Solvation  Ediel_sol  =         0.00000000
  ---------------------------------------------------
  free energy    TOTEN  =     -2337.60765733 eV

  energy without entropy =    -2337.60765733  energy(sigma->0) =    -2337.60765733


--------------------------------------------------------------------------------------------------------




 average (electrostatic) potential at core
  the test charge radii are     0.9892
  (the norm of the test charge is              1.0000)
       1 -83.2312       2 -83.2312       3 -83.2312       4 -83.2312       5 -83.2312
       6 -83.2312       7 -83.2312       8 -83.2312       9 -83.2312      10 -83.2312
      11 -83.2312      12 -83.2312      13 -83.2312      14 -83.2312      15 -83.2312
      16 -83.2312      17 -83.2312      18 -83.2312      19 -83.2312      20 -83.2312
      21 -83.2312      22 -83.2312      23 -83.2312      24 -83.2312      25 -83.2312
      26 -83.2312      27 -83.2312      28 -83.2312      29 -83.2312      30 -83.2312
      31 -83.2312      32 -83.2312      33 -83.2312      34 -83.2312      35 -83.2312
      36 -83.2312      37 -83.2312      38 -83.2312      39 -83.2312      40 -83.2312
      41 -83.2312      42 -83.2312      43 -83.2312      44 -83.2312      45 -83.2312
      46 -83.2312      47 -83.2312      48 -83.2312      49 -83.2312      50 -83.2312
      51 -83.2312      52 -83.2312      53 -83.2312      54 -83.2312      55 -83.2312
      56 -83.2312      57 -83.2312      58 -83.2312      59 -83.2312      60 -83.2312
      61 -83.2312      62 -83.2312      63 -83.2312      64 -83.2312      65 -83.2312
      66 -83.2312      67 -83.2312      68 -83.2312      69 -83.2312      70 -83.2312
      71 -83.2312      72 -83.2312      73 -83.2312      74 -83.2312      75 -83.2312
      76 -83.2312      77 -83.2312      78 -83.2312      79 -83.2312      80 -83.2312
      81 -83.2312      82 -83.2312      83 -83.2312      84 -83.2312      85 -83.2312
      86 -83.2312      87 -83.2313      88 -83.2313      89 -83.2312      90 -83.2312
      91 -83.2312      92 -83.2312      93 -83.2312      94 -83.2312      95 -83.2312
      96 -83.2312      97 -83.2312      98 -83.2312      99 -83.2312     100 -83.2312
     101 -83.2312     102 -83.2312     103 -83.2312     104 -83.2312     105 -83.2312
     106 -83.2312     107 -83.2312     108 -83.2312     109 -83.2312     110 -83.2312
     111 -83.2312     112 -83.2312     113 -83.2312     114 -83.2312     115 -83.2312
     116 -83.2312     117 -83.2312     118 -83.2312     119 -83.2312     120 -83.2312
     121 -83.2312     122 -83.2312     123 -83.2313     124 -83.2313     125 -83.2312
     126 -83.2312     127 -83.2312     128 -83.2312     129 -83.2313     130 -83.2313
     131 -83.2312     132 -83.2312     133 -83.2312     134 -83.2312     135 -83.2312
     136 -83.2312     137 -83.2312     138 -83.2312     139 -83.2312     140 -83.2312
     141 -83.2312     142 -83.2312     143 -83.2312     144 -83.2312     145 -83.2312
     146 -83.2312     147 -83.2312     148 -83.2312     149 -83.2312     150 -83.2312
     151 -83.2312     152 -83.2312     153 -83.2312     154 -83.2312     155 -83.2312
     156 -83.2312     157 -83.2312     158 -83.2312     159 -83.2312     160 -83.2312
     161 -83.2312     162 -83.2312     163 -83.2312     164 -83.2312     165 -83.2312
     166 -83.2312     167 -83.2312     168 -83.2312     169 -83.2312     170 -83.2312
     171 -83.2312     172 -83.2312     173 -83.2312     174 -83.2312     175 -83.2312
     176 -83.2312     177 -83.2312     178 -83.2312     179 -83.2312     180 -83.2312
     181 -83.2312     182 -83.2312     183 -83.2312     184 -83.2312     185 -83.2312
     186 -83.2312     187 -83.2312     188 -83.2312     189 -83.2312     190 -83.2312
     191 -83.2312     192 -83.2312     193 -83.2312     194 -83.2312     195 -83.2312
     196 -83.2312     197 -83.2312     198 -83.2312     199 -83.2312     200 -83.2312
     201 -83.2312     202 -83.2312     203 -83.2312     204 -83.2312     205 -83.2312
     206 -83.2312     207 -83.2312     208 -83.2312     209 -83.2312     210 -83.2312
     211 -83.2312     212 -83.2312     213 -83.2312     214 -83.2312     215 -83.2312
     216 -83.2312     217 -83.2312     218 -83.2312     219 -83.2312     220 -83.2312
     221 -83.2312     222 -83.2312     223 -83.2312     224 -83.2312     225 -83.2312
     226 -83.2312     227 -83.2312     228 -83.2312     229 -83.2312     230 -83.2312
     231 -83.2312     232 -83.2312     233 -83.2312     234 -83.2312     235 -83.2312
     236 -83.2312     237 -83.2312     238 -83.2312     239 -83.2312     240 -83.2312
     241 -83.2312     242 -83.2312     243 -83.2312     244 -83.2312     245 -83.2312
     246 -83.2312     247 -83.2312     248 -83.2312     249 -83.2312     250 -83.2312
     251 -83.2312     252 -83.2312     253 -83.2312     254 -83.2312     255 -83.2312
     256 -83.2312     257 -83.2312     258 -83.2312     259 -83.2312     260 -83.2312
     261 -83.2312     262 -83.2312     263 -83.2312     264 -83.2312     265 -83.2312
     266 -83.2312     267 -83.2312     268 -83.2312     269 -83.2312     270 -83.2312
     271 -83.2312     272 -83.2312     273 -83.2312     274 -83.2312     275 -83.2312
     276 -83.2312     277 -83.2312     278 -83.2312     279 -83.2312     280 -83.2312
     281 -83.2312     282 -83.2312     283 -83.2312     284 -83.2312     285 -83.2312
     286 -83.2312     287 -83.2312     288 -83.2312     289 -83.2312     290 -83.2312
     291 -83.2312     292 -83.2312     293 -83.2312     294 -83.2312     295 -83.2312
     296 -83.2312     297 -83.2312     298 -83.2312     299 -83.2312     300 -83.2312
     301 -83.2312     302 -83.2312     303 -83.2312     304 -83.2313     305 -83.2312
     306 -83.2312     307 -83.2312     308 -83.2312     309 -83.2313     310 -83.2313
     311 -83.2312     312 -83.2312     313 -83.2312     314 -83.2312     315 -83.2312
     316 -83.2312     317 -83.2312     318 -83.2312     319 -83.2312     320 -83.2312
     321 -83.2312     322 -83.2312     323 -83.2312     324 -83.2312     325 -83.2312
     326 -83.2312     327 -83.2312     328 -83.2312     329 -83.2312     330 -83.2312
     331 -83.2312     332 -83.2312     333 -83.2312     334 -83.2312     335 -83.2312
     336 -83.2312     337 -83.2312     338 -83.2312     339 -83.2313     340 -83.2313
     341 -83.2312     342 -83.2312     343 -83.2312     344 -83.2312     345 -83.2313
     346 -83.2313     347 -83.2312     348 -83.2312     349 -83.2312     350 -83.2312
     351 -83.2312     352 -83.2312     353 -83.2312     354 -83.2312     355 -83.2312
     356 -83.2312     357 -83.2312     358 -83.2312     359 -83.2312     360 -83.2312
     361 -83.2312     362 -83.2312     363 -83.2312     364 -83.2312     365 -83.2312
     366 -83.2312     367 -83.2312     368 -83.2312     369 -83.2312     370 -83.2312
     371 -83.2312     372 -83.2312     373 -83.2312     374 -83.2312     375 -83.2312
     376 -83.2312     377 -83.2312     378 -83.2312     379 -83.2312     380 -83.2312
     381 -83.2312     382 -83.2312     383 -83.2312     384 -83.2312     385 -83.2312
     386 -83.2312     387 -83.2312     388 -83.2312     389 -83.2312     390 -83.2312
     391 -83.2312     392 -83.2312     393 -83.2312     394 -83.2312     395 -83.2312
     396 -83.2312     397 -83.2312     398 -83.2312     399 -83.2312     400 -83.2312
     401 -83.2312     402 -83.2312     403 -83.2312     404 -83.2312     405 -83.2312
     406 -83.2312     407 -83.2312     408 -83.2312     409 -83.2312     410 -83.2312
     411 -83.2312     412 -83.2312     413 -83.2312     414 -83.2312     415 -83.2312
     416 -83.2312     417 -83.2312     418 -83.2312     419 -83.2312     420 -83.2312
     421 -83.2312     422 -83.2312     423 -83.2312     424 -83.2312     425 -83.2312
     426 -83.2312     427 -83.2312     428 -83.2312     429 -83.2312     430 -83.2312
     431 -83.2312     432 -83.2312
 
 
 
 E-fermi :   6.1197     XC(G=0):  -9.4058     alpha+bet :-11.9845

 val. band max:        5.8379162021   @ k =   0.0000   0.0000   0.0000
 cond. band min:       6.5449912480   @ k =   0.0000   0.0000   0.0000
 fundamental gap:      0.7070750459
 Fermi energy:         6.1196790778

 k-point     1 :       0.0000    0.0000    0.0000
  band No.  band energies     occupation 
      1      -6.1242      2.00000
      2      -5.7628      2.00000
      3      -5.7628      2.00000
      4      -5.7628      2.00000
      5      -5.7628      2.00000
      6      -5.7628      2.00000
      7      -5.7628      2.00000
      8      -5.7628      2.00000
      9      -5.7628      2.00000
     10      -5.6398      2.00000
     11      -5.6398      2.00000
     12      -5.6398      2.00000
     13      -5.6398      2.00000
     14      -5.6398      2.00000
     15      -5.6398      2.00000
     16      -5.1742      2.00000
     17      -5.1742      2.00000
     18      -5.1742      2.00000
     19      -5.1742      2.00000
     20      -5.1742      2.00000
     21      -5.1742      2.00000
     22      -5.1742      2.00000
     23      -5.1742      2.00000
     24      -5.1742      2.00000
     25      -5.1742      2.00000
     26      -5.1742      2.00000
     27      -5.1742      2.00000
     28      -4.8241      2.00000
     29      -4.8241      2.00000
     30      -4.8241      2.00000
     31      -4.8241      2.00000
     32      -4.8241      2.00000
     33      -4.8241      2.00000
     34      -4.8241      2.00000
     35      -4.8241      2.00000
     36      -4.8241      2.00000
     37      -4.8241      2.00000
     38      -4.8241      2.00000
     39      -4.8241      2.00000
     40      -4.8241      2.00000
     41      -4.8241      2.00000
     42      -4.8241      2.00000
     43      -4.8240      2.00000
     44      -4.8240      2.00000
     45      -4.8240      2.00000
     46      -4.8240      2.00000
     47      -4.8240      2.00000
     48      -4.8240      2.00000
     49      -4.8240      2.00000
     50      -4.8240      2.00000
     51      -4.8240      2.00000
     52      -4.7467      2.00000
     53      -4.7467      2.00000
     54      -4.7467      2.00000
     55      -4.7466      2.00000
     56      -4.7466      2.00000
     57      -4.7466      2.00000
     58      -4.7466      2.00000
     59      -4.7466      2.00000
     60      -4.2189      2.00000
     61      -4.2189      2.00000
     62      -4.2189      2.00000
     63      -4.2189      2.00000
     64      -4.2189      2.00000
     65      -4.2189      2.00000
     66      -4.0171      2.00000
     67      -4.0171      2.00000
     68      -4.0171      2.00000
     69      -4.0171      2.00000
     70      -4.0171      2.00000
     71      -4.0171      2.00000
     72      -4.0171      2.00000
     73      -4.0171      2.00000
     74      -4.0171      2.00000
     75      -4.0171      2.00000
     76      -4.0171      2.00000
     77      -4.0171      2.00000
     78      -4.0171      2.00000
     79      -4.0171      2.00000
     80      -4.0171      2.00000
     81      -4.0171      2.00000
     82      -4.0171      2.00000
     83      -4.0171      2.00000
     84      -4.0171      2.00000
     85      -4.0171      2.00000
     86      -4.0171      2.00000
     87      -4.0171      2.00000
     88      -4.0171      2.00000
     89      -4.0171      2.00000
     90      -3.8335      2.00000
     91      -3.8335      2.00000
     92      -3.8335      2.00000
     93      -3.8335      2.00000
     94      -3.8335      2.00000
     95      -3.8335      2.00000
     96      -3.8335      2.00000
     97      -3.8335      2.00000
     98      -3.8335      2.00000
     99      -3.8335      2.00000
    100      -3.8335      2.00000
    101      -3.8335      2.00000
    102      -3.8335      2.00000
    103      -3.8335      2.00000
    104      -3.8335      2.00000
    105      -3.8335      2.00000
    106      -3.8335      2.00000
    107      -3.8335      2.00000
    108      -3.8335      2.00000
    109      -3.8335      2.00000
    110      -3.8335      2.00000
    111      -3.8335      2.00000
    112      -3.8335      2.00000
    113      -3.8335      2.00000
    114      -3.7913      2.00000
    115      -3.7913      2.00000
    116      -3.7913      2.00000
    117      -3.7913      2.00000
    118      -3.6319      2.00000
    119      -3.6319      2.00000
    120      -3.6319      2.00000
    121      -3.6319      2.00000
    122      -3.6319      2.00000
    123      -3.6319      2.00000
    124      -3.6319      2.00000
    125      -3.6319      2.00000
    126      -3.6319      2.00000
    127      -3.6319      2.00000
    128      -3.6319      2.00000
    129      -3.6319      2.00000
    130      -3.6319      2.00000
    131      -3.6319      2.00000
    132      -3.6319      2.00000
    133      -3.6319      2.00000
    134      -3.6319      2.00000
    135      -3.6319      2.00000
    136      -3.6319      2.00000
    137      -3.6319      2.00000
    138      -3.6319      2.00000
    139      -3.6319      2.00000
    140      -3.6319      2.00000
    141      -3.6319      2.00000
    142      -3.0544      2.00000
    143      -3.0544      2.00000
    144      -3.0544      2.00000
    145      -3.0544      2.00000
    146      -3.0544      2.00000
    147      -3.0544      2.00000
    148      -3.0544      2.00000
    149      -3.0544      2.00000
    150      -3.0544      2.00000
    151      -3.0544      2.00000
    152      -3.0544      2.00000
    153      -3.0544      2.00000
    154      -3.0544      2.00000
    155      -3.0544      2.00000
    156      -3.0544      2.00000
    157      -3.0544      2.00000
    158      -3.0544      2.00000
    159      -3.0544      2.00000
    160      -3.0544      2.00000
    161      -3.0544      2.00000
    162      -3.0544      2.00000
    163      -3.0544      2.00000
    164      -3.0544      2.00000
    165      -3.0544      2.00000
    166      -2.8580      2.00000
    167      -2.8580      2.00000
    168      -2.8580      2.00000
    169      -2.8580      2.00000
    170      -2.8580      2.00000
    171      -2.8580      2.00000
    172      -2.8580      2.00000
    173      -2.8580      2.00000
    174      -2.8580      2.00000
    175      -2.8580      2.00000
    176      -2.8580      2.00000
    177      -2.8580      2.00000
    178      -2.8480      2.00000
    179      -2.8480      2.00000
    180      -2.8480      2.00000
    181      -2.8480      2.00000
    182      -2.8480      2.00000
    183      -2.8480      2.00000
    184      -2.8480      2.00000
    185      -2.8480      2.00000
    186      -2.8480      2.00000
    187      -2.8480      2.00000
    188      -2.8480      2.00000
    189      -2.8480      2.00000
    190      -2.8480      2.00000
    191      -2.8480      2.00000
    192      -2.8480      2.00000
    193      -2.8480      2.00000
    194      -2.8480      2.00000
    195      -2.8480      2.00000
    196      -2.8480      2.00000
    197      -2.8480      2.00000
    198      -2.8480      2.00000
    199      -2.8480      2.00000
    200      -2.8480      2.00000
    201      -2.8480      2.00000
    202      -1.9776      2.00000
    203      -1.9776      2.00000
    204      -1.9776      2.00000
    205      -1.9776      2.00000
    206      -1.9776      2.00000
    207      -1.9776      2.00000
    208      -1.8576      2.00000
    209      -1.8576      2.00000
    210      -1.8576      2.00000
    211      -1.8576      2.00000
    212      -1.8576      2.00000
    213      -1.8576      2.00000
    214      -1.8576      2.00000
    215      -1.8576      2.00000
    216      -1.8576      2.00000
    217      -1.8576      2.00000
    218      -1.8576      2.00000
    219      -1.8576      2.00000
    220      -1.8576      2.00000
    221      -1.8576      2.00000
    222      -1.8576      2.00000
    223      -1.8576      2.00000
    224      -1.8576      2.00000
    225      -1.8576      2.00000
    226      -1.8576      2.00000
    227      -1.8576      2.00000
    228      -1.8576      2.00000
    229      -1.8576      2.00000
    230      -1.8576      2.00000
    231      -1.8576      2.00000
    232      -1.1317      2.00000
    233      -1.1317      2.00000
    234      -1.1317      2.00000
    235      -1.1317      2.00000
    236      -1.0041      2.00000
    237      -1.0041      2.00000
    238      -1.0041      2.00000
    239      -1.0041      2.00000
    240      -1.0041      2.00000
    241      -1.0041      2.00000
    242      -1.0041      2.00000
    243      -1.0041      2.00000
    244      -1.0041      2.00000
    245      -1.0041      2.00000
    246      -1.0041      2.00000
    247      -1.0041      2.00000
    248      -1.0041      2.00000
    249      -1.0041      2.00000
    250      -1.0041      2.00000
    251      -1.0041      2.00000
    252      -1.0041      2.00000
    253      -1.0041      2.00000
    254      -1.0041      2.00000
    255      -1.0041      2.00000
    256      -1.0041      2.00000
    257      -1.0041      2.00000
    258      -1.0041      2.00000
    259      -1.0041      2.00000
    260      -0.9310      2.00000
    261      -0.9310      2.00000
    262      -0.9310      2.00000
    263      -0.9310      2.00000
    264      -0.9310      2.00000
    265      -0.9310      2.00000
    266      -0.9310      2.00000
    267      -0.9310      2.00000
    268      -0.9310      2.00000
    269      -0.9309      2.00000
    270      -0.9309      2.00000
    271      -0.9309      2.00000
    272      -0.7670      2.00000
    273      -0.7670      2.00000
    274      -0.7670      2.00000
    275      -0.7670      2.00000
    276      -0.7670      2.00000
    277      -0.7670      2.00000
    278      -0.7670      2.00000
    279      -0.7670      2.00000
    280      -0.7670      2.00000
    281      -0.7670      2.00000
    282      -0.7670      2.00000
    283      -0.7670      2.00000
    284      -0.7670      2.00000
    285      -0.7670      2.00000
    286      -0.7670      2.00000
    287      -0.7670      2.00000
    288      -0.7670      2.00000
    289      -0.7670      2.00000
    290      -0.7670      2.00000
    291      -0.7670      2.00000
    292      -0.7670      2.00000
    293      -0.7670      2.00000
    294      -0.7670      2.00000
    295      -0.7670      2.00000
    296      -0.7257      2.00000
    297      -0.7257      2.00000
    298      -0.7257      2.00000
    299      -0.7257      2.00000
    300      -0.7257      2.00000
    301      -0.7257      2.00000
    302      -0.7257      2.00000
    303      -0.7257      2.00000
    304      -0.7257      2.00000
    305      -0.7257      2.00000
    306      -0.7257      2.00000
    307      -0.7257      2.00000
    308      -0.7257      2.00000
    309      -0.7257      2.00000
    310      -0.7257      2.00000
    311      -0.7257      2.00000
    312      -0.7257      2.00000
    313      -0.7257      2.00000
    314      -0.7257      2.00000
    315      -0.7257      2.00000
    316      -0.7257      2.00000
    317      -0.7256      2.00000
    318      -0.7256      2.00000
    319      -0.7256      2.00000
    320      -0.1674      2.00000
    321      -0.1674      2.00000
    322      -0.1674      2.00000
    323      -0.1674      2.00000
    324      -0.1674      2.00000
    325      -0.1674      2.00000
    326      -0.1674      2.00000
    327      -0.1674      2.00000
    328      -0.1674      2.00000
    329      -0.1674      2.00000
    330      -0.1674      2.00000
    331      -0.1674      2.00000
    332      -0.1674      2.00000
    333      -0.1674      2.00000
    334      -0.1674      2.00000
    335      -0.1674      2.00000
    336      -0.1674      2.00000
    337      -0.1674      2.00000
    338      -0.1674      2.00000
    339      -0.1674      2.00000
    340      -0.1674      2.00000
    341      -0.1674      2.00000
    342      -0.1674      2.00000
    343      -0.1674      2.00000
    344       0.1961      2.00000
    345       0.1961      2.00000
    346       0.1961      2.00000
    347       0.1961      2.00000
    348       0.1961      2.00000
    349       0.1961      2.00000
    350       0.1961      2.00000
    351       0.1961      2.00000
    352       0.1961      2.00000
    353       0.1961      2.00000
    354       0.1961      2.00000
    355       0.1961      2.00000
    356       0.1961      2.00000
    357       0.1961      2.00000
    358       0.1961      2.00000
    359       0.1961      2.00000
    360       0.1961      2.00000
    361       0.1961      2.00000
    362       0.1961      2.00000
    363       0.1961      2.00000
    364       0.1961      2.00000
    365       0.1961      2.00000
    366       0.1961      2.00000
    367       0.1961      2.00000
    368       0.5044      2.00000
    369       0.5044      2.00000
    370       0.5044      2.00000
    371       0.5044      2.00000
    372       0.5044      2.00000
    373       0.5044      2.00000
    374       0.5044      2.00000
    375       0.5044      2.00000
    376       0.8295      2.00000
    377       0.8295      2.00000
    378       0.8295      2.00000
    379       0.8295      2.00000
    380       0.8295      2.00000
    381       0.8295      2.00000
    382       1.4033      2.00000
    383       1.4033      2.00000
    384       1.4033      2.00000
    385       1.4033      2.00000
    386       1.4033      2.00000
    387       1.4033      2.00000
    388       1.4033      2.00000
    389       1.4033      2.00000
    390       1.4033      2.00000
    391       1.4033      2.00000
    392       1.4033      2.00000
    393       1.4033      2.00000
    394       1.4033      2.00000
    395       1.4033      2.00000
    396       1.4033      2.00000
    397       1.4033      2.00000
    398       1.4033      2.00000
    399       1.4034      2.00000
    400       1.4034      2.00000
    401       1.4034      2.00000
    402       1.4034      2.00000
    403       1.4034      2.00000
    404       1.4034      2.00000
    405       1.4034      2.00000
    406       1.4243      2.00000
    407       1.4243      2.00000
    408       1.4243      2.00000
    409       1.4243      2.00000
    410       1.4243      2.00000
    411       1.4243      2.00000
    412       1.4243      2.00000
    413       1.4243      2.00000
    414       1.4243      2.00000
    415       1.4243      2.00000
    416       1.4243      2.00000
    417       1.4243      2.00000
    418       1.8280      2.00000
    419       1.8280      2.00000
    420       1.8280      2.00000
    421       1.8280      2.00000
    422       1.8280      2.00000
    423       1.8280      2.00000
    424       1.8280      2.00000
    425       1.8280      2.00000
    426       1.8280      2.00000
    427       1.8280      2.00000
    428       1.8280      2.00000
    429       1.8280      2.00000
    430       1.8280      2.00000
    431       1.8280      2.00000
    432       1.8280      2.00000
    433       1.8280      2.00000
    434       1.8280      2.00000
    435       1.8280      2.00000
    436       1.8280      2.00000
    437       1.8280      2.00000
    438       1.8280      2.00000
    439       1.8280      2.00000
    440       1.8280      2.00000
    441       1.8280      2.00000
    442       2.1227      2.00000
    443       2.1227      2.00000
    444       2.1227      2.00000
    445       2.1227      2.00000
    446       2.1227      2.00000
    447       2.1227      2.00000
    448       2.1227      2.00000
    449       2.1227      2.00000
    450       2.1227      2.00000
    451       2.1227      2.00000
    452       2.1227      2.00000
    453       2.1227      2.00000
    454       2.1926      2.00000
    455       2.1926      2.00000
    456       2.1926      2.00000
    457       2.1926      2.00000
    458       2.1926      2.00000
    459       2.1926      2.00000
    460       2.1926      2.00000
    461       2.1926      2.00000
    462       2.1926      2.00000
    463       2.1926      2.00000
    464       2.1926      2.00000
    465       2.1926      2.00000
    466       2.1926      2.00000
    467       2.1926      2.00000
    468       2.1926      2.00000
    469       2.1926      2.00000
    470       2.1926      2.00000
    471       2.1926      2.00000
    472       2.1926      2.00000
    473       2.1926      2.00000
    474       2.1926      2.00000
    475       2.1926      2.00000
    476       2.1926      2.00000
    477       2.1926      2.00000
    478       2.2055      2.00000
    479       2.2055      2.00000
    480       2.2055      2.00000
    481       2.2055      2.00000
    482       2.2055      2.00000
    483       2.2055      2.00000
    484       2.2055      2.00000
    485       2.2055      2.00000
    486       2.2055      2.00000
    487       2.2055      2.00000
    488       2.2055      2.00000
    489       2.2055      2.00000
    490       2.2055      2.00000
    491       2.2055      2.00000
    492       2.2055      2.00000
    493       2.2055      2.00000
    494       2.2055      2.00000
    495       2.2055      2.00000
    496       2.2055      2.00000
    497       2.2055      2.00000
    498       2.2055      2.00000
    499       2.2055      2.00000
    500       2.2055      2.00000
    501       2.2055      2.00000
    502       2.2680      2.00000
    503       2.2680      2.00000
    504       2.2680      2.00000
    505       2.2680      2.00000
    506       2.2680      2.00000
    507       2.2680      2.00000
    508       2.2680      2.00000
    509       2.2680      2.00000
    510       2.2680      2.00000
    511       2.2680      2.00000
    512       2.2680      2.00000
    513       2.2680      2.00000
    514       2.2681      2.00000
    515       2.2681      2.00000
    516       2.2681      2.00000
    517       2.2681      2.00000
    518       2.2681      2.00000
    519       2.2681      2.00000
    520       2.2681      2.00000
    521       2.2681      2.00000
    522       2.2681      2.00000
    523       2.2681      2.00000
    524       2.2681      2.00000
    525       2.2681      2.00000
    526       2.7907      2.00000
    527       2.7907      2.00000
    528       2.7907      2.00000
    529       2.7907      2.00000
    530       2.7907      2.00000
    531       2.7907      2.00000
    532       2.7907      2.00000
    533       2.7907      2.00000
    534       2.7907      2.00000
    535       2.7907      2.00000
    536       2.7907      2.00000
    537       2.7907      2.00000
    538       2.7907      2.00000
    539       2.7907      2.00000
    540       2.7907      2.00000
    541       2.7907      2.00000
    542       2.7907      2.00000
    543       2.7907      2.00000
    544       2.7907      2.00000
    545       2.7907      2.00000
    546       2.7907      2.00000
    547       2.7907      2.00000
    548       2.7907      2.00000
    549       2.7907      2.00000
    550       2.9860      2.00000
    551       2.9860      2.00000
    552       2.9860      2.00000
    553       2.9860      2.00000
    554       2.9860      2.00000
    555       2.9860      2.00000
    556       3.0617      2.00000
    557       3.0617      2.00000
    558       3.0617      2.00000
    559       3.0617      2.00000
    560       3.0617      2.00000
    561       3.0617      2.00000
    562       3.0617      2.00000
    563       3.0617      2.00000
    564       3.0617      2.00000
    565       3.0617      2.00000
    566       3.0617      2.00000
    567       3.0617      2.00000
    568       3.0617      2.00000
    569       3.0617      2.00000
    570       3.0617      2.00000
    571       3.0617      2.00000
    572       3.0617      2.00000
    573       3.0617      2.00000
    574       3.0617      2.00000
    575       3.0617      2.00000
    576       3.0617      2.00000
    577       3.0617      2.00000
    578       3.0617      2.00000
    579       3.0617      2.00000
    580       3.0761      2.00000
    581       3.0761      2.00000
    582       3.0761      2.00000
    583       3.0761      2.00000
    584       3.0761      2.00000
    585       3.0761      2.00000
    586       3.0761      2.00000
    587       3.0761      2.00000
    588       3.0761      2.00000
    589       3.0761      2.00000
    590       3.0761      2.00000
    591       3.0761      2.00000
    592       3.0761      2.00000
    593       3.0761      2.00000
    594       3.0761      2.00000
    595       3.0761      2.00000
    596       3.0761      2.00000
    597       3.0761      2.00000
    598       3.0761      2.00000
    599       3.0761      2.00000
    600       3.0761      2.00000
    601       3.0761      2.00000
    602       3.0761      2.00000
    603       3.0761      2.00000
    604       3.2841      2.00000
    605       3.2841      2.00000
    606       3.2841      2.00000
    607       3.2841      2.00000
    608       3.2841      2.00000
    609       3.2841      2.00000
    610       3.2842      2.00000
    611       3.2842      2.00000
    612       3.2842      2.00000
    613       3.2842      2.00000
    614       3.2842      2.00000
    615       3.2842      2.00000
    616       3.2842      2.00000
    617       3.2842      2.00000
    618       3.2842      2.00000
    619       3.2842      2.00000
    620       3.2842      2.00000
    621       3.2842      2.00000
    622       3.2842      2.00000
    623       3.2842      2.00000
    624       3.2842      2.00000
    625       3.2842      2.00000
    626       3.2842      2.00000
    627       3.2842      2.00000
    628       3.4206      2.00000
    629       3.4206      2.00000
    630       3.4206      2.00000
    631       3.4206      2.00000
    632       3.4206      2.00000
    633       3.4206      2.00000
    634       3.4206      2.00000
    635       3.4206      2.00000
    636       3.4206      2.00000
    637       3.4206      2.00000
    638       3.4206      2.00000
    639       3.4206      2.00000
    640       3.4251      2.00000
    641       3.4251      2.00000
    642       3.4251      2.00000
    643       3.4251      2.00000
    644       3.4251      2.00000
    645       3.4251      2.00000
    646       3.4251      2.00000
    647       3.4251      2.00000
    648       3.4251      2.00000
    649       3.4251      2.00000
    650       3.4251      2.00000
    651       3.4251      2.00000
    652       3.4582      2.00000
    653       3.4582      2.00000
    654       3.4582      2.00000
    655       3.4582      2.00000
    656       3.4582      2.00000
    657       3.4582      2.00000
    658       3.4582      2.00000
    659       3.4582      2.00000
    660       3.5431      2.00000
    661       3.5431      2.00000
    662       3.5431      2.00000
    663       3.5431      2.00000
    664       3.5431      2.00000
    665       3.5431      2.00000
    666       3.5431      2.00000
    667       3.5431      2.00000
    668       3.5431      2.00000
    669       3.5431      2.00000
    670       3.5431      2.00000
    671       3.5431      2.00000
    672       3.5431      2.00000
    673       3.5431      2.00000
    674       3.5431      2.00000
    675       3.5431      2.00000
    676       3.5431      2.00000
    677       3.5431      2.00000
    678       3.5431      2.00000
    679       3.5431      2.00000
    680       3.5431      2.00000
    681       3.5431      2.00000
    682       3.5431      2.00000
    683       3.5431      2.00000
    684       3.7266      2.00000
    685       3.7266      2.00000
    686       3.7266      2.00000
    687       3.7266      2.00000
    688       3.7266      2.00000
    689       3.7266      2.00000
    690       3.7266      2.00000
    691       3.7266      2.00000
    692       3.7266      2.00000
    693       3.7266      2.00000
    694       3.7266      2.00000
    695       3.7266      2.00000
    696       3.8026      2.00000
    697       3.8026      2.00000
    698       3.8026      2.00000
    699       3.8026      2.00000
    700       3.8026      2.00000
    701       3.8026      2.00000
    702       3.8456      2.00000
    703       3.8456      2.00000
    704       3.8456      2.00000
    705       3.8457      2.00000
    706       3.8457      2.00000
    707       3.8457      2.00000
    708       3.8457      2.00000
    709       3.8457      2.00000
    710       3.8457      2.00000
    711       3.8457      2.00000
    712       3.8457      2.00000
    713       3.8457      2.00000
    714       3.8457      2.00000
    715       3.8457      2.00000
    716       3.8457      2.00000
    717       3.8457      2.00000
    718       3.8457      2.00000
    719       3.8457      2.00000
    720       3.8457      2.00000
    721       3.8457      2.00000
    722       3.8457      2.00000
    723       3.8457      2.00000
    724       3.8457      2.00000
    725       3.8457      2.00000
    726       4.0620      2.00000
    727       4.0620      2.00000
    728       4.0620      2.00000
    729       4.0620      2.00000
    730       4.0620      2.00000
    731       4.0620      2.00000
    732       4.0620      2.00000
    733       4.0620      2.00000
    734       4.0620      2.00000
    735       4.0620      2.00000
    736       4.0620      2.00000
    737       4.0620      2.00000
    738       4.0620      2.00000
    739       4.0620      2.00000
    740       4.0620      2.00000
    741       4.0621      2.00000
    742       4.0621      2.00000
    743       4.0621      2.00000
    744       4.0621      2.00000
    745       4.0621      2.00000
    746       4.0621      2.00000
    747       4.0621      2.00000
    748       4.0621      2.00000
    749       4.0621      2.00000
    750       4.0920      2.00000
    751       4.0920      2.00000
    752       4.0920      2.00000
    753       4.0920      2.00000
    754       4.0920      2.00000
    755       4.0920      2.00000
    756       4.0920      2.00000
    757       4.0920      2.00000
    758       4.0920      2.00000
    759       4.0920      2.00000
    760       4.0920      2.00000
    761       4.0920      2.00000
    762       4.0920      2.00000
    763       4.0920      2.00000
    764       4.0920      2.00000
    765       4.0920      2.00000
    766       4.0920      2.00000
    767       4.0920      2.00000
    768       4.0920      2.00000
    769       4.0920      2.00000
    770       4.0920      2.00000
    771       4.0920      2.00000
    772       4.0920      2.00000
    773       4.0920      2.00000
    774       4.5412      2.00000
    775       4.5412      2.00000
    776       4.5412      2.00000
    777       4.5412      2.00000
    778       4.5412      2.00000
    779       4.5412      2.00000
    780       4.5412      2.00000
    781       4.5412      2.00000
    782       4.5412      2.00000
    783       4.5412      2.00000
    784       4.5412      2.00000
    785       4.5412      2.00000
    786       4.5412      2.00000
    787       4.5412      2.00000
    788       4.5412      2.00000
    789       4.5412      2.00000
    790       4.5412      2.00000
    791       4.5412      2.00000
    792       4.5412      2.00000
    793       4.5412      2.00000
    794       4.5412      2.00000
    795       4.5412      2.00000
    796       4.5412      2.00000
    797       4.5412      2.00000
    798       4.6399      2.00000
    799       4.6399      2.00000
    800       4.6399      2.00000
    801       4.6399      2.00000
    802       4.6399      2.00000
    803       4.6399      2.00000
    804       4.6399      2.00000
    805       4.6399      2.00000
    806       4.6450      2.00000
    807       4.6450      2.00000
    808       4.6450      2.00000
    809       4.6450      2.00000
    810       4.6450      2.00000
    811       4.6450      2.00000
    812       4.6450      2.00000
    813       4.6450      2.00000
    814       4.6450      2.00000
    815       4.6450      2.00000
    816       4.6450      2.00000
    817       4.6450      2.00000
    818       4.8379      2.00000
    819       4.8379      2.00000
    820       4.8379      2.00000
    821       4.8379      2.00000
    822       4.8379      2.00000
    823       4.8379      2.00000
    824       4.8379      2.00000
    825       4.8379      2.00000
    826       4.8379      2.00000
    827       4.8379      2.00000
    828       4.8380      2.00000
    829       4.8380      2.00000
    830       4.8380      2.00000
    831       4.8380      2.00000
    832       4.8380      2.00000
    833       4.8380      2.00000
    834       5.2735      2.00000
    835       5.2735      2.00000
    836       5.2735      2.00000
    837       5.2735      2.00000
    838       5.2735      2.00000
    839       5.2735      2.00000
    840       5.2735      2.00000
    841       5.2735      2.00000
    842       5.2735      2.00000
    843       5.2735      2.00000
    844       5.2735      2.00000
    845       5.2735      2.00000
    846       5.3877      2.00000
    847       5.3877      2.00000
    848       5.3877      2.00000
    849       5.3877      2.00000
    850       5.3877      2.00000
    851       5.3877      2.00000
    852       5.3877      2.00000
    853       5.3877      2.00000
    854       5.3877      2.00000
    855       5.3877      2.00000
    856       5.3877      2.00000
    857       5.3877      2.00000
    858       5.3877      2.00000
    859       5.3877      2.00000
    860       5.3877      2.00000
    861       5.3877      2.00000
    862       5.8379      2.00000
    863       5.8379      2.00000
    864       5.8379      2.00000
    865       6.5450      0.00000
    866       6.5450      0.00000
    867       6.5450      0.00000
    868       6.5450      0.00000
    869       6.5450      0.00000
    870       6.5450      0.00000
    871       6.5633      0.00000
    872       6.5633      0.00000
    873       6.5633      0.00000
    874       6.5633      0.00000
    875       6.5633      0.00000
    876       6.5633      0.00000
    877       6.8987      0.00000
    878       6.8987      0.00000
    879       6.8987      0.00000
    880       6.8987      0.00000
    881       6.8987      0.00000
    882       6.8987      0.00000
    883       6.8987      0.00000
    884       6.8987      0.00000
    885       6.8987      0.00000
    886       6.8988      0.00000
    887       6.8988      0.00000
    888       6.8988      0.00000
    889       6.8988      0.00000
    890       6.8988      0.00000
    891       6.8988      0.00000
    892       6.8988      0.00000
    893       6.8988      0.00000
    894       6.8988      0.00000
    895       6.8988      0.00000
    896       6.8988      0.00000
    897       6.8988      0.00000
    898       6.8988      0.00000
    899       6.8988      0.00000
    900       6.8988      0.00000
    901       7.3791      0.00000
    902       7.3791      0.00000
    903       7.3791      0.00000
    904       7.3791      0.00000
    905       7.4032      0.00000
    906       7.4032      0.00000
    907       7.4032      0.00000
    908       7.4032      0.00000
    909       7.4032      0.00000
    910       7.4032      0.00000
    911       7.4032      0.00000
    912       7.4032      0.00000
    913       7.4032      0.00000
    914       7.4032      0.00000
    915       7.4032      0.00000
    916       7.4032      0.00000
    917       7.5419      0.00000
    918       7.5419      0.00000
    919       7.5419      0.00000
    920       7.5419      0.00000
    921       7.5419      0.00000
    922       7.5419      0.00000
    923       7.6044      0.00000
    924       7.6044      0.00000
    925       7.6044      0.00000
    926       7.6044      0.00000
    927       7.6044      0.00000
    928       7.6044      0.00000
    929       7.6044      0.00000
    930       7.6044      0.00000
    931       7.8019      0.00000
    932       7.8019      0.00000
    933       7.8019      0.00000
    934       7.8019      0.00000
    935       7.8019      0.00000
    936       7.8019      0.00000
    937       7.8019      0.00000
    938       7.8019      0.00000
    939       7.8019      0.00000
    940       7.8019      0.00000
    941       7.8019      0.00000
    942       7.8019      0.00000
    943       7.8019      0.00000
    944       7.8019      0.00000
    945       7.8019      0.00000
    946       7.8019      0.00000
    947       7.8019      0.00000
    948       7.8019      0.00000
    949       7.8019      0.00000
    950       7.8019      0.00000
    951       7.8019      0.00000
    952       7.8019      0.00000
    953       7.8019      0.00000
    954       7.8019      0.00000
    955       7.8272      0.00000
    956       7.8272      0.00000
    957       7.8272      0.00000
    958       7.8272      0.00000
    959       7.8272      0.00000
    960       7.8272      0.00000
    961       7.8789      0.00000
    962       7.8789      0.00000
    963       7.8789      0.00000
    964       7.8789      0.00000
    965       7.8789      0.00000
    966       7.8789      0.00000
    967       7.8789      0.00000
    968       7.8789      0.00000
    969       7.8789      0.00000
    970       7.8789      0.00000
    971       7.8789      0.00000
    972       7.8789      0.00000
    973       7.8789      0.00000
    974       7.8789      0.00000
    975       7.8789      0.00000
    976       7.8789      0.00000
    977       7.8789      0.00000
    978       7.8789      0.00000
    979       7.8789      0.00000
    980       7.8789      0.00000
    981       7.8789      0.00000
    982       7.8789      0.00000
    983       7.8789      0.00000
    984       7.8789      0.00000
    985       8.1922      0.00000
    986       8.1922      0.00000
    987       8.1922      0.00000
    988       8.1922      0.00000
    989       8.1922      0.00000
    990       8.1922      0.00000
    991       8.1922      0.00000
    992       8.1922      0.00000
    993       8.2903      0.00000
    994       8.2903      0.00000
    995       8.2903      0.00000
    996       8.2903      0.00000
    997       8.2903      0.00000
    998       8.2903      0.00000
    999       8.2903      0.00000
   1000       8.2903      0.00000
   1001       8.2903      0.00000
   1002       8.2903      0.00000
   1003       8.2903      0.00000
   1004       8.2903      0.00000
   1005       8.2903      0.00000
   1006       8.2903      0.00000
   1007       8.2903      0.00000
   1008       8.2903      0.00000
   1009       8.2903      0.00000
   1010       8.2903      0.00000
   1011       8.2903      0.00000
   1012       8.2903      0.00000
   1013       8.2903      0.00000
   1014       8.2903      0.00000
   1015       8.2903      0.00000
   1016       8.2903      0.00000
   1017       8.4007      0.00000
   1018       8.4007      0.00000
   1019       8.4007      0.00000
   1020       8.5535      0.00000
   1021       8.5535      0.00000
   1022       8.5535      0.00000
   1023       8.5535      0.00000
   1024       8.5535      0.00000
   1025       8.5535      0.00000
   1026       8.5535      0.00000
   1027       8.5535      0.00000
   1028       8.5535      0.00000
   1029       8.5535      0.00000
   1030       8.5535      0.00000
   1031       8.5535      0.00000
   1032       8.5535      0.00000
   1033       8.5535      0.00000
   1034       8.5535      0.00000
   1035       8.5535      0.00000
   1036       8.5535      0.00000
   1037       8.5535      0.00000
   1038       8.5536      0.00000
   1039       8.5536      0.00000
   1040       8.5537      0.00000
   1041       8.5538      0.00000
   1042       8.5539      0.00000
   1043       8.5541      0.00000
   1044       8.5854      0.00000
   1045       8.5854      0.00000
   1046       8.5854      0.00000
   1047       8.5854      0.00000
   1048       8.5854      0.00000
   1049       8.5854      0.00000
   1050       8.5854      0.00000
   1051       8.5854      0.00000
   1052       8.5854      0.00000
   1053       8.5854      0.00000
   1054       8.5854      0.00000
   1055       8.5854      0.00000
   1056       8.5854      0.00000
   1057       8.5854      0.00000
   1058       8.5854      0.00000
   1059       8.5854      0.00000
   1060       8.5854      0.00000
   1061       8.5856      0.00000
   1062       8.5858      0.00000
   1063       8.5859      0.00000
   1064       8.5860      0.00000
   1065       8.5865      0.00000
   1066       8.5870      0.00000
   1067       8.5876      0.00000
   1068       8.6905      0.00000
   1069       8.6905      0.00000
   1070       8.6905      0.00000
   1071       8.6905      0.00000
   1072       8.6905      0.00000
   1073       8.6905      0.00000
   1074       8.6905      0.00000
   1075       8.6905      0.00000
   1076       8.6905      0.00000
   1077       8.6905      0.00000
   1078       8.6905      0.00000
   1079       8.6905      0.00000
   1080       8.6906      0.00000
   1081       8.6906      0.00000
   1082       8.6906      0.00000
   1083       8.6907      0.00000
   1084       8.6909      0.00000


--------------------------------------------------------------------------------------------------------


 soft charge-density along one line, spin component            1
         0         1         2         3         4         5         6         7         8         9
 total charge-density along one line
 
 pseudopotential strength for first ion, spin component:            1
 18.412  25.688  -0.000  -0.000  -0.000  -0.000  -0.000  -0.000
 25.688  35.843  -0.000  -0.000  -0.000  -0.000  -0.000  -0.000
 -0.000  -0.000   4.178  -0.000  -0.000   7.786  -0.000  -0.000
 -0.000  -0.000  -0.000   4.178  -0.000  -0.000   7.786  -0.000
 -0.000  -0.000  -0.000  -0.000   4.178  -0.000  -0.000   7.786
 -0.000  -0.000   7.786  -0.000  -0.000  14.519  -0.000  -0.000
 -0.000  -0.000  -0.000   7.786  -0.000  -0.000  14.519  -0.000
 -0.000  -0.000  -0.000  -0.000   7.786  -0.000  -0.000  14.519
 total augmentation occupancy for first ion, spin component:            1
  5.706  -2.160   0.000   0.000   0.000   0.000   0.000   0.000
 -2.160   0.928  -0.000  -0.000  -0.000   0.000   0.000   0.000
  0.000  -0.000   2.983   0.000   0.000  -0.671  -0.000  -0.000
  0.000  -0.000   0.000   2.983   0.000  -0.000  -0.671  -0.000
  0.000  -0.000   0.000   0.000   2.983  -0.000  -0.000  -0.671
  0.000   0.000  -0.671  -0.000  -0.000   0.160   0.000   0.000
  0.000   0.000  -0.000  -0.671  -0.000   0.000   0.160   0.000
  0.000   0.000  -0.000  -0.000  -0.671   0.000   0.000   0.160


------------------------ aborting loop because EDIFF is reached ----------------------------------------


    CHARGE:  cpu time      0.2380: real time      0.2401
    FORLOC:  cpu time      0.0160: real time      0.0161
    FORNL :  cpu time      0.6065: real time      0.6081
    STRESS:  cpu time      1.7741: real time      1.7788
    FORCOR:  cpu time      0.0290: real time      0.0291
    FORHAR:  cpu time      0.0099: real time      0.0100
    MIXING:  cpu time      0.0738: real time      0.0740
    OFIELD:  cpu time      0.0000: real time      0.0000

  FORCE on cell =-STRESS in cart. coord.  units (eV):
  Direction    XX          YY          ZZ          XY          YZ          ZX
  --------------------------------------------------------------------------------------
  Alpha Z   726.65581   726.65581   726.65581
  Ewald  -16456.94035-16456.94035-16456.94035     0.00000     0.00000     0.00000
  Hartree  1078.45784  1078.45784  1078.45784    -0.00011    -0.00011    -0.00011
  E(xc)   -5481.83474 -5481.83474 -5481.83474    -0.00093    -0.00093    -0.00093
  Local   -6319.20353 -6319.20353 -6319.20353     0.00510     0.00509     0.00509
  n-local 16801.13145 16801.13146 16801.13146     0.00095     0.00095     0.00095
  augment -2511.61800 -2511.61800 -2511.61800    -0.00393    -0.00393    -0.00393
  Kinetic 12271.60626 12271.60626 12271.60626     0.00047     0.00047     0.00047
  Fock        0.00000     0.00000     0.00000     0.00000     0.00000     0.00000
  -------------------------------------------------------------------------------------
  Total     108.25473   108.25474   108.25473     0.00155     0.00154     0.00154
  in kB      20.06154    20.06154    20.06154     0.00029     0.00029     0.00029
  external pressure =       20.06 kB  Pullay stress =        0.00 kB


 VOLUME and BASIS-vectors are now :
 -----------------------------------------------------------------------------
  energy-cutoff  :      400.00
  volume of cell :     8645.56
      direct lattice vectors                 reciprocal lattice vectors
    16.290000000 16.290000000  0.000000000     0.030693677  0.030693677 -0.030693677
     0.000000000 16.290000000 16.290000000    -0.030693677  0.030693677  0.030693677
    16.290000000  0.000000000 16.290000000     0.030693677 -0.030693677  0.030693677

  length of vectors
    23.037538931 23.037538931 23.037538931     0.053163008  0.053163008  0.053163008


 FORCES acting on ions
    electron-ion (+dipol)            ewald-force                    non-local-force                 convergence-correction
 -----------------------------------------------------------------------------------------------
   -.183E-05 -.659E-05 -.130E-04   -.580E-08 -.580E-08 -.580E-08   0.119E-03 0.119E-03 0.120E-03   -.536E-05 -.473E-06 0.433E-05
   0.551E-03 0.540E-03 0.543E-03   -.524E-03 -.524E-03 -.524E-03   -.154E-03 -.155E-03 -.153E-03   -.818E-05 0.548E-05 -.513E-06
   -.671E-04 0.675E-03 -.746E-04   0.141E-04 -.552E-03 0.141E-04   0.304E-04 -.785E-04 0.310E-04   -.120E-04 0.746E-05 -.512E-05
   0.104E-03 0.339E-03 0.932E-04   -.309E-04 -.462E-03 -.309E-04   -.395E-04 0.223E-04 -.384E-04   -.529E-05 0.184E-04 0.388E-05
   -.534E-03 0.481E-03 -.539E-03   0.507E-03 -.490E-03 0.507E-03   0.148E-03 0.982E-04 0.151E-03   0.666E-05 0.142E-04 0.811E-05
   0.282E-04 0.104E-02 0.257E-04   -.168E-04 -.101E-02 -.168E-04   -.125E-03 -.178E-03 -.126E-03   -.523E-05 0.515E-05 -.101E-05
   0.510E-05 -.226E-04 0.994E-05   -.580E-08 -.580E-08 -.580E-08   0.117E-03 0.121E-03 0.120E-03   -.958E-05 0.130E-04 -.185E-04
   0.543E-03 0.541E-03 0.554E-03   -.524E-03 -.524E-03 -.524E-03   -.152E-03 -.155E-03 -.153E-03   -.204E-05 0.396E-05 -.113E-04
   -.814E-04 0.668E-03 -.760E-04   0.141E-04 -.552E-03 0.141E-04   0.285E-04 -.785E-04 0.313E-04   0.473E-05 0.140E-04 -.441E-05
   0.861E-04 0.344E-03 0.830E-04   -.309E-04 -.462E-03 -.309E-04   -.384E-04 0.203E-04 -.376E-04   0.111E-04 0.155E-04 0.137E-04
   -.533E-03 0.482E-03 -.547E-03   0.507E-03 -.490E-03 0.507E-03   0.145E-03 0.978E-04 0.150E-03   0.928E-05 0.135E-04 0.173E-04
   0.317E-04 0.104E-02 0.116E-04   -.168E-04 -.101E-02 -.168E-04   -.128E-03 -.175E-03 -.128E-03   -.583E-05 0.106E-04 0.152E-04
   0.687E-03 -.795E-04 -.754E-04   -.552E-03 0.141E-04 0.141E-04   -.773E-04 0.298E-04 0.317E-04   -.649E-05 0.144E-05 -.500E-05
   0.357E-03 0.988E-04 0.983E-04   -.462E-03 -.309E-04 -.309E-04   0.206E-04 -.378E-04 -.370E-04   0.211E-05 -.243E-05 -.272E-05
   0.604E-03 0.601E-03 -.155E-03   -.538E-03 -.538E-03 0.282E-04   -.164E-03 -.165E-03 -.549E-04   0.176E-05 0.720E-05 0.133E-06
   -.854E-04 -.732E-04 -.340E-03   0.309E-04 0.309E-04 0.462E-03   0.135E-03 0.136E-03 0.759E-04   -.659E-06 -.146E-04 -.787E-05
   0.165E-03 0.427E-03 -.593E-03   -.449E-04 -.476E-03 0.521E-03   -.485E-04 0.959E-05 0.603E-04   -.523E-05 -.421E-05 -.712E-05
   -.145E-03 0.605E-03 -.419E-03   0.449E-04 -.521E-03 0.476E-03   0.493E-04 -.606E-04 -.929E-05   -.166E-04 -.433E-05 -.464E-05
   0.693E-03 -.797E-04 -.725E-04   -.552E-03 0.141E-04 0.141E-04   -.788E-04 0.293E-04 0.320E-04   -.109E-04 0.207E-05 -.831E-05
   0.348E-03 0.922E-04 0.920E-04   -.462E-03 -.309E-04 -.309E-04   0.214E-04 -.368E-04 -.394E-04   0.108E-04 0.261E-05 0.621E-05
   0.588E-03 0.601E-03 -.174E-03   -.538E-03 -.538E-03 0.282E-04   -.165E-03 -.167E-03 -.553E-04   0.200E-04 0.854E-05 0.208E-04
   -.104E-03 -.880E-04 -.360E-03   0.309E-04 0.309E-04 0.462E-03   0.137E-03 0.136E-03 0.759E-04   0.162E-04 0.867E-06 0.119E-04
   0.158E-03 0.414E-03 -.603E-03   -.449E-04 -.476E-03 0.521E-03   -.469E-04 0.102E-04 0.597E-04   0.474E-06 0.839E-05 0.258E-05
   -.152E-03 0.604E-03 -.415E-03   0.449E-04 -.521E-03 0.476E-03   0.481E-04 -.610E-04 -.107E-04   -.827E-05 -.319E-05 -.748E-05
   0.503E-03 -.519E-03 -.521E-03   -.490E-03 0.507E-03 0.507E-03   0.962E-04 0.147E-03 0.148E-03   -.595E-05 -.784E-05 -.711E-05
   0.106E-02 0.249E-04 0.335E-04   -.101E-02 -.168E-04 -.168E-04   -.176E-03 -.125E-03 -.128E-03   -.953E-05 -.211E-05 -.685E-05
   0.420E-03 0.174E-03 -.601E-03   -.476E-03 -.449E-04 0.521E-03   0.955E-05 -.507E-04 0.626E-04   0.388E-05 -.117E-04 -.252E-05
   0.597E-03 -.155E-03 -.430E-03   -.521E-03 0.449E-04 0.476E-03   -.588E-04 0.495E-04 -.987E-05   0.134E-05 -.661E-05 0.807E-05
   -.146E-04 -.205E-04 -.105E-02   0.168E-04 0.168E-04 0.101E-02   0.125E-03 0.127E-03 0.177E-03   -.802E-05 -.464E-05 -.338E-06
   0.538E-03 0.530E-03 -.491E-03   -.507E-03 -.507E-03 0.490E-03   -.147E-03 -.147E-03 -.980E-04   -.111E-04 -.343E-05 -.426E-05
   0.497E-03 -.529E-03 -.537E-03   -.490E-03 0.507E-03 0.507E-03   0.974E-04 0.148E-03 0.148E-03   -.136E-05 0.195E-05 0.907E-05
   0.104E-02 0.339E-04 0.834E-05   -.101E-02 -.168E-04 -.168E-04   -.176E-03 -.126E-03 -.128E-03   0.824E-05 -.964E-05 0.188E-04
   0.409E-03 0.166E-03 -.612E-03   -.476E-03 -.449E-04 0.521E-03   0.955E-05 -.477E-04 0.617E-04   0.148E-04 -.743E-05 0.102E-04
   0.598E-03 -.148E-03 -.419E-03   -.521E-03 0.449E-04 0.476E-03   -.601E-04 0.487E-04 -.110E-04   0.271E-05 -.127E-04 -.196E-05
   -.178E-04 -.173E-04 -.104E-02   0.168E-04 0.168E-04 0.101E-02   0.125E-03 0.127E-03 0.178E-03   -.565E-05 -.790E-05 -.526E-05
   0.533E-03 0.540E-03 -.495E-03   -.507E-03 -.507E-03 0.490E-03   -.148E-03 -.150E-03 -.960E-04   -.521E-05 -.105E-04 -.226E-05
   0.879E-05 -.136E-04 -.881E-05   -.580E-08 -.580E-08 -.580E-08   0.117E-03 0.120E-03 0.120E-03   -.134E-04 0.581E-05 0.712E-06
   0.557E-03 0.544E-03 0.540E-03   -.524E-03 -.524E-03 -.524E-03   -.155E-03 -.154E-03 -.155E-03   -.125E-04 -.164E-07 0.409E-05
   -.787E-04 0.682E-03 -.815E-04   0.141E-04 -.552E-03 0.141E-04   0.314E-04 -.780E-04 0.334E-04   -.153E-05 0.977E-07 -.119E-05
   0.103E-03 0.369E-03 0.104E-03   -.309E-04 -.462E-03 -.309E-04   -.382E-04 0.193E-04 -.397E-04   -.624E-05 -.914E-05 -.547E-05
   -.521E-03 0.507E-03 -.531E-03   0.507E-03 -.490E-03 0.507E-03   0.147E-03 0.970E-04 0.149E-03   -.555E-05 -.104E-04 0.179E-05
   0.370E-04 0.106E-02 0.662E-05   -.168E-04 -.101E-02 -.168E-04   -.127E-03 -.176E-03 -.127E-03   -.118E-04 -.182E-04 0.190E-04
   -.321E-05 0.471E-05 -.337E-04   -.580E-08 -.580E-08 -.580E-08   0.119E-03 0.120E-03 0.120E-03   -.365E-05 -.130E-04 0.249E-04
   0.553E-03 0.564E-03 0.526E-03   -.524E-03 -.524E-03 -.524E-03   -.154E-03 -.156E-03 -.156E-03   -.105E-04 -.192E-04 0.194E-04
   -.717E-04 0.696E-03 -.780E-04   0.141E-04 -.552E-03 0.141E-04   0.290E-04 -.778E-04 0.319E-04   -.560E-05 -.154E-04 -.316E-05
   0.934E-04 0.371E-03 0.949E-04   -.309E-04 -.462E-03 -.309E-04   -.349E-04 0.207E-04 -.396E-04   -.145E-06 -.124E-04 0.381E-05
   -.523E-03 0.505E-03 -.535E-03   0.507E-03 -.490E-03 0.507E-03   0.146E-03 0.967E-04 0.149E-03   -.175E-05 -.822E-05 0.699E-05
   0.314E-04 0.105E-02 0.128E-04   -.168E-04 -.101E-02 -.168E-04   -.125E-03 -.177E-03 -.125E-03   -.841E-05 -.480E-05 0.103E-04
   0.688E-03 -.779E-04 -.769E-04   -.552E-03 0.141E-04 0.141E-04   -.786E-04 0.308E-04 0.318E-04   -.577E-05 -.127E-05 -.352E-05
   0.371E-03 0.911E-04 0.101E-03   -.462E-03 -.309E-04 -.309E-04   0.203E-04 -.373E-04 -.395E-04   -.121E-04 0.518E-05 -.291E-05
   0.619E-03 0.610E-03 -.156E-03   -.538E-03 -.538E-03 0.282E-04   -.165E-03 -.166E-03 -.535E-04   -.120E-04 -.123E-05 -.540E-06
   -.755E-04 -.893E-04 -.360E-03   0.309E-04 0.309E-04 0.462E-03   0.136E-03 0.136E-03 0.775E-04   -.119E-04 0.169E-05 0.106E-04
   0.161E-03 0.432E-03 -.622E-03   -.449E-04 -.476E-03 0.521E-03   -.489E-04 0.862E-05 0.619E-04   0.236E-06 -.719E-05 0.193E-04
   -.160E-03 0.603E-03 -.434E-03   0.449E-04 -.521E-03 0.476E-03   0.480E-04 -.578E-04 -.116E-04   0.365E-06 -.566E-05 0.131E-04
   0.685E-03 -.721E-04 -.875E-04   -.552E-03 0.141E-04 0.141E-04   -.776E-04 0.307E-04 0.314E-04   -.434E-05 -.715E-05 0.761E-05
   0.372E-03 0.922E-04 0.921E-04   -.462E-03 -.309E-04 -.309E-04   0.177E-04 -.356E-04 -.378E-04   -.105E-04 0.152E-05 0.414E-05
   0.611E-03 0.605E-03 -.162E-03   -.538E-03 -.538E-03 0.282E-04   -.165E-03 -.165E-03 -.536E-04   -.299E-05 0.232E-05 0.646E-05
   -.910E-04 -.876E-04 -.350E-03   0.309E-04 0.309E-04 0.462E-03   0.135E-03 0.140E-03 0.782E-04   0.529E-05 -.445E-05 -.320E-06
   0.159E-03 0.432E-03 -.600E-03   -.449E-04 -.476E-03 0.521E-03   -.477E-04 0.920E-05 0.606E-04   0.289E-06 -.877E-05 -.420E-06
   -.164E-03 0.614E-03 -.422E-03   0.449E-04 -.521E-03 0.476E-03   0.478E-04 -.609E-04 -.807E-05   0.407E-05 -.136E-04 -.314E-05
   0.491E-03 -.533E-03 -.538E-03   -.490E-03 0.507E-03 0.507E-03   0.985E-04 0.150E-03 0.148E-03   0.410E-05 0.290E-05 0.111E-04
   0.106E-02 0.285E-04 0.217E-04   -.101E-02 -.168E-04 -.168E-04   -.176E-03 -.129E-03 -.127E-03   -.103E-04 -.118E-05 0.348E-05
   0.443E-03 0.154E-03 -.601E-03   -.476E-03 -.449E-04 0.521E-03   0.887E-05 -.494E-04 0.604E-04   -.194E-04 0.728E-05 -.142E-06
   0.607E-03 -.166E-03 -.418E-03   -.521E-03 0.449E-04 0.476E-03   -.604E-04 0.489E-04 -.103E-04   -.637E-05 0.492E-05 -.403E-05
   -.345E-04 -.202E-04 -.104E-02   0.168E-04 0.168E-04 0.101E-02   0.126E-03 0.124E-03 0.176E-03   0.105E-04 -.175E-05 -.411E-05
   0.509E-03 0.527E-03 -.494E-03   -.507E-03 -.507E-03 0.490E-03   -.145E-03 -.148E-03 -.988E-04   0.148E-04 0.126E-05 -.254E-06
   0.487E-03 -.525E-03 -.513E-03   -.490E-03 0.507E-03 0.507E-03   0.979E-04 0.147E-03 0.145E-03   0.841E-05 -.128E-05 -.114E-04
   0.104E-02 0.184E-04 0.471E-04   -.101E-02 -.168E-04 -.168E-04   -.174E-03 -.125E-03 -.128E-03   0.174E-05 0.499E-05 -.208E-04
   0.410E-03 0.171E-03 -.577E-03   -.476E-03 -.449E-04 0.521E-03   0.121E-04 -.507E-04 0.604E-04   0.998E-05 -.869E-05 -.243E-04
   0.595E-03 -.163E-03 -.408E-03   -.521E-03 0.449E-04 0.476E-03   -.621E-04 0.503E-04 -.115E-04   0.703E-05 0.104E-05 -.128E-04
   -.380E-04 -.541E-05 -.105E-02   0.168E-04 0.168E-04 0.101E-02   0.125E-03 0.123E-03 0.178E-03   0.156E-04 -.156E-04 0.363E-06
   0.508E-03 0.531E-03 -.503E-03   -.507E-03 -.507E-03 0.490E-03   -.146E-03 -.149E-03 -.982E-04   0.180E-04 -.179E-05 0.794E-05
   -.810E-04 -.897E-04 0.672E-03   0.141E-04 0.141E-04 -.552E-03   0.327E-04 0.335E-04 -.754E-04   -.423E-06 0.721E-05 0.671E-05
   0.103E-03 0.100E-03 0.359E-03   -.309E-04 -.309E-04 -.462E-03   -.378E-04 -.407E-04 0.200E-04   -.681E-05 -.282E-06 0.879E-06
   -.149E-03 0.594E-03 0.606E-03   0.282E-04 -.538E-03 -.538E-03   -.551E-04 -.163E-03 -.165E-03   -.530E-05 0.110E-04 0.579E-06
   -.339E-03 -.810E-04 -.820E-04   0.462E-03 0.309E-04 0.309E-04   0.759E-04 0.137E-03 0.135E-03   -.913E-05 -.666E-05 -.349E-05
   -.595E-03 0.434E-03 0.163E-03   0.521E-03 -.476E-03 -.449E-04   0.613E-04 0.952E-05 -.478E-04   -.649E-05 -.112E-04 -.411E-05
   -.423E-03 0.608E-03 -.153E-03   0.476E-03 -.521E-03 0.449E-04   -.972E-05 -.615E-04 0.497E-04   -.341E-06 -.598E-05 -.903E-05
   -.825E-04 -.722E-04 0.689E-03   0.141E-04 0.141E-04 -.552E-03   0.320E-04 0.298E-04 -.775E-04   0.209E-05 -.623E-05 -.865E-05
   0.886E-04 0.963E-04 0.358E-03   -.309E-04 -.309E-04 -.462E-03   -.398E-04 -.401E-04 0.211E-04   0.102E-04 0.267E-05 0.821E-06
   -.166E-03 0.603E-03 0.601E-03   0.282E-04 -.538E-03 -.538E-03   -.555E-04 -.165E-03 -.164E-03   0.127E-04 0.402E-05 0.605E-05
   -.342E-03 -.891E-04 -.101E-03   0.462E-03 0.309E-04 0.309E-04   0.760E-04 0.134E-03 0.137E-03   -.593E-05 0.440E-05 0.129E-04
   -.589E-03 0.420E-03 0.152E-03   0.521E-03 -.476E-03 -.449E-04   0.584E-04 0.969E-05 -.498E-04   -.984E-05 0.311E-05 0.984E-05
   -.421E-03 0.589E-03 -.171E-03   0.476E-03 -.521E-03 0.449E-04   -.968E-05 -.586E-04 0.495E-04   -.154E-05 0.991E-05 0.963E-05
   0.611E-03 -.154E-03 0.613E-03   -.538E-03 0.282E-04 -.538E-03   -.164E-03 -.542E-04 -.164E-03   -.542E-05 -.937E-06 -.664E-05
   -.763E-04 -.339E-03 -.750E-04   0.309E-04 0.462E-03 0.309E-04   0.135E-03 0.781E-04 0.135E-03   -.933E-05 -.120E-04 -.115E-04
   0.541E-03 0.552E-03 0.539E-03   -.524E-03 -.524E-03 -.524E-03   -.252E-03 -.254E-03 -.252E-03   -.827E-05 -.158E-04 -.484E-05
   -.529E-03 -.522E-03 -.538E-03   0.524E-03 0.524E-03 0.524E-03   0.253E-03 0.252E-03 0.255E-03   -.543E-05 -.125E-04 0.116E-05
   0.962E-04 0.348E-03 0.891E-04   -.309E-04 -.462E-03 -.309E-04   -.138E-03 -.756E-04 -.138E-03   -.719E-05 0.133E-07 0.549E-06
   -.610E-03 0.147E-03 -.608E-03   0.538E-03 -.282E-04 0.538E-03   0.163E-03 0.578E-04 0.166E-03   0.471E-05 0.514E-05 -.107E-05
   0.598E-03 -.161E-03 0.601E-03   -.538E-03 0.282E-04 -.538E-03   -.164E-03 -.557E-04 -.163E-03   0.854E-05 0.771E-05 0.473E-05
   -.920E-04 -.337E-03 -.959E-04   0.309E-04 0.462E-03 0.309E-04   0.131E-03 0.762E-04 0.137E-03   0.109E-04 -.117E-04 0.831E-05
   0.529E-03 0.541E-03 0.515E-03   -.524E-03 -.524E-03 -.524E-03   -.252E-03 -.253E-03 -.252E-03   0.405E-05 -.632E-05 0.194E-04
   -.529E-03 -.519E-03 -.545E-03   0.524E-03 0.524E-03 0.524E-03   0.251E-03 0.251E-03 0.254E-03   -.411E-05 -.146E-04 0.918E-05
   0.924E-04 0.344E-03 0.871E-04   -.309E-04 -.462E-03 -.309E-04   -.136E-03 -.763E-04 -.138E-03   -.558E-05 0.428E-05 0.251E-05
   -.605E-03 0.159E-03 -.604E-03   0.538E-03 -.282E-04 0.538E-03   0.164E-03 0.574E-04 0.165E-03   -.181E-05 -.725E-05 -.388E-05
   0.434E-03 -.594E-03 0.173E-03   -.476E-03 0.521E-03 -.449E-04   0.814E-05 0.622E-04 -.490E-04   -.959E-05 -.848E-05 -.125E-04
   0.608E-03 -.415E-03 -.158E-03   -.521E-03 0.476E-03 0.449E-04   -.604E-04 -.114E-04 0.484E-04   -.802E-05 -.569E-05 -.176E-05
   0.352E-03 0.101E-03 0.806E-04   -.462E-03 -.309E-04 -.309E-04   -.768E-04 -.137E-03 -.136E-03   -.303E-05 -.133E-04 0.662E-05
   0.156E-03 -.601E-03 -.612E-03   -.282E-04 0.538E-03 0.538E-03   0.554E-04 0.163E-03 0.165E-03   -.188E-05 -.524E-05 0.413E-05
   -.982E-04 -.867E-04 -.353E-03   0.309E-04 0.309E-04 0.462E-03   0.392E-04 0.387E-04 -.210E-04   0.285E-07 -.114E-04 -.579E-05
   0.769E-04 0.943E-04 -.668E-03   -.141E-04 -.141E-04 0.552E-03   -.328E-04 -.316E-04 0.774E-04   0.522E-05 -.140E-04 -.126E-04
   0.408E-03 -.582E-03 0.156E-03   -.476E-03 0.521E-03 -.449E-04   0.114E-04 0.609E-04 -.490E-04   0.126E-04 -.198E-04 0.492E-05
   0.585E-03 -.395E-03 -.169E-03   -.521E-03 0.476E-03 0.449E-04   -.601E-04 -.110E-04 0.487E-04   0.160E-04 -.266E-04 0.901E-05
   0.343E-03 0.108E-03 0.866E-04   -.462E-03 -.309E-04 -.309E-04   -.781E-04 -.134E-03 -.138E-03   0.743E-05 -.234E-04 0.265E-05
   0.149E-03 -.591E-03 -.598E-03   -.282E-04 0.538E-03 0.538E-03   0.563E-04 0.166E-03 0.163E-03   0.412E-05 -.174E-04 -.760E-05
   -.107E-03 -.839E-04 -.349E-03   0.309E-04 0.309E-04 0.462E-03   0.416E-04 0.391E-04 -.208E-04   0.624E-05 -.145E-04 -.104E-04
   0.777E-04 0.944E-04 -.675E-03   -.141E-04 -.141E-04 0.552E-03   -.290E-04 -.336E-04 0.774E-04   -.276E-06 -.119E-04 -.584E-05
   -.684E-04 -.852E-04 0.672E-03   0.141E-04 0.141E-04 -.552E-03   0.316E-04 0.321E-04 -.775E-04   -.122E-04 0.411E-05 0.901E-05
   0.101E-03 0.926E-04 0.356E-03   -.309E-04 -.309E-04 -.462E-03   -.369E-04 -.402E-04 0.212E-04   -.510E-05 0.692E-05 0.209E-05
   -.144E-03 0.605E-03 0.614E-03   0.282E-04 -.538E-03 -.538E-03   -.551E-04 -.163E-03 -.165E-03   -.105E-04 0.612E-06 -.586E-05
   -.344E-03 -.965E-04 -.690E-04   0.462E-03 0.309E-04 0.309E-04   0.777E-04 0.137E-03 0.135E-03   -.584E-05 0.929E-05 -.176E-04
   -.597E-03 0.427E-03 0.163E-03   0.521E-03 -.476E-03 -.449E-04   0.626E-04 0.118E-04 -.492E-04   -.632E-05 -.709E-05 -.236E-05
   -.417E-03 0.593E-03 -.168E-03   0.476E-03 -.521E-03 0.449E-04   -.109E-04 -.601E-04 0.474E-04   -.446E-05 0.735E-05 0.879E-05
   -.838E-04 -.649E-04 0.660E-03   0.141E-04 0.141E-04 -.552E-03   0.335E-04 0.336E-04 -.763E-04   0.148E-05 -.183E-04 0.200E-04
   0.965E-04 0.105E-03 0.345E-03   -.309E-04 -.309E-04 -.462E-03   -.383E-04 -.413E-04 0.197E-04   0.628E-06 -.361E-05 0.152E-04
   -.153E-03 0.615E-03 0.602E-03   0.282E-04 -.538E-03 -.538E-03   -.575E-04 -.162E-03 -.165E-03   0.184E-05 -.110E-04 0.542E-05
   -.346E-03 -.861E-04 -.991E-04   0.462E-03 0.309E-04 0.309E-04   0.764E-04 0.134E-03 0.137E-03   -.251E-05 0.995E-06 0.107E-04
   -.592E-03 0.426E-03 0.154E-03   0.521E-03 -.476E-03 -.449E-04   0.591E-04 0.110E-04 -.492E-04   -.693E-05 -.515E-05 0.685E-05
   -.414E-03 0.592E-03 -.169E-03   0.476E-03 -.521E-03 0.449E-04   -.103E-04 -.600E-04 0.505E-04   -.798E-05 0.863E-05 0.600E-05
   0.619E-03 -.158E-03 0.612E-03   -.538E-03 0.282E-04 -.538E-03   -.165E-03 -.554E-04 -.164E-03   -.115E-04 0.368E-05 -.518E-05
   -.767E-04 -.355E-03 -.889E-04   0.309E-04 0.462E-03 0.309E-04   0.137E-03 0.767E-04 0.138E-03   -.118E-04 0.686E-05 -.459E-06
   0.540E-03 0.520E-03 0.534E-03   -.524E-03 -.524E-03 -.524E-03   -.252E-03 -.251E-03 -.253E-03   -.639E-05 0.127E-04 0.899E-06
   -.529E-03 -.549E-03 -.541E-03   0.524E-03 0.524E-03 0.524E-03   0.251E-03 0.252E-03 0.253E-03   -.375E-05 0.155E-04 0.610E-05
   0.988E-04 0.341E-03 0.675E-04   -.309E-04 -.462E-03 -.309E-04   -.136E-03 -.779E-04 -.136E-03   -.124E-04 0.911E-05 0.203E-04
   -.599E-03 0.150E-03 -.624E-03   0.538E-03 -.282E-04 0.538E-03   0.163E-03 0.541E-04 0.166E-03   -.655E-05 0.573E-05 0.158E-04
   0.619E-03 -.161E-03 0.593E-03   -.538E-03 0.282E-04 -.538E-03   -.165E-03 -.541E-04 -.166E-03   -.123E-04 0.595E-05 0.162E-04
   -.789E-04 -.356E-03 -.973E-04   0.309E-04 0.462E-03 0.309E-04   0.134E-03 0.776E-04 0.137E-03   -.544E-05 0.678E-05 0.915E-05
   0.533E-03 0.536E-03 0.521E-03   -.524E-03 -.524E-03 -.524E-03   -.251E-03 -.254E-03 -.250E-03   -.877E-06 0.269E-06 0.109E-04
   -.541E-03 -.535E-03 -.528E-03   0.524E-03 0.524E-03 0.524E-03   0.251E-03 0.251E-03 0.253E-03   0.778E-05 0.124E-05 -.696E-05
   0.825E-04 0.345E-03 0.905E-04   -.309E-04 -.462E-03 -.309E-04   -.134E-03 -.769E-04 -.138E-03   0.228E-05 0.395E-05 -.649E-06
   -.605E-03 0.152E-03 -.604E-03   0.538E-03 -.282E-04 0.538E-03   0.164E-03 0.557E-04 0.165E-03   -.155E-05 0.161E-05 -.343E-05
   0.430E-03 -.602E-03 0.157E-03   -.476E-03 0.521E-03 -.449E-04   0.104E-04 0.599E-04 -.512E-04   -.828E-05 0.168E-05 0.664E-05
   0.597E-03 -.431E-03 -.161E-03   -.521E-03 0.476E-03 0.449E-04   -.575E-04 -.110E-04 0.483E-04   0.447E-06 0.941E-05 0.261E-06
   0.352E-03 0.812E-04 0.917E-04   -.462E-03 -.309E-04 -.309E-04   -.765E-04 -.138E-03 -.138E-03   -.367E-05 0.828E-05 -.265E-05
   0.156E-03 -.616E-03 -.608E-03   -.282E-04 0.538E-03 0.538E-03   0.556E-04 0.166E-03 0.163E-03   -.243E-05 0.760E-05 0.233E-05
   -.103E-03 -.954E-04 -.370E-03   0.309E-04 0.309E-04 0.462E-03   0.394E-04 0.359E-04 -.194E-04   0.452E-05 0.926E-06 0.984E-05
   0.816E-04 0.844E-04 -.685E-03   -.141E-04 -.141E-04 0.552E-03   -.315E-04 -.319E-04 0.777E-04   -.100E-05 -.352E-05 0.410E-05
   0.428E-03 -.602E-03 0.165E-03   -.476E-03 0.521E-03 -.449E-04   0.100E-04 0.598E-04 -.480E-04   -.536E-05 0.158E-05 -.534E-05
   0.605E-03 -.420E-03 -.154E-03   -.521E-03 0.476E-03 0.449E-04   -.628E-04 -.108E-04 0.514E-04   -.207E-05 -.241E-05 -.102E-04
   0.340E-03 0.827E-04 0.989E-04   -.462E-03 -.309E-04 -.309E-04   -.792E-04 -.136E-03 -.136E-03   0.115E-04 0.531E-05 -.114E-04
   0.140E-03 -.619E-03 -.602E-03   -.282E-04 0.538E-03 0.538E-03   0.562E-04 0.167E-03 0.164E-03   0.131E-04 0.952E-05 -.413E-05
   -.107E-03 -.974E-04 -.356E-03   0.309E-04 0.309E-04 0.462E-03   0.400E-04 0.377E-04 -.195E-04   0.741E-05 0.776E-06 -.419E-05
   0.825E-04 0.854E-04 -.685E-03   -.141E-04 -.141E-04 0.552E-03   -.310E-04 -.332E-04 0.779E-04   -.267E-05 -.361E-05 0.411E-05
   -.517E-03 -.521E-03 0.496E-03   0.507E-03 0.507E-03 -.490E-03   0.148E-03 0.148E-03 0.988E-04   -.106E-04 -.629E-05 -.183E-05
   0.318E-04 0.303E-04 0.105E-02   -.168E-04 -.168E-04 -.101E-02   -.126E-03 -.124E-03 -.177E-03   -.837E-05 -.784E-05 -.137E-05
   -.598E-03 0.173E-03 0.426E-03   0.521E-03 -.449E-04 -.476E-03   0.600E-04 -.504E-04 0.908E-05   -.276E-05 -.111E-04 -.227E-05
   -.436E-03 -.158E-03 0.601E-03   0.476E-03 0.449E-04 -.521E-03   -.839E-05 0.500E-04 -.585E-04   0.121E-04 -.429E-05 -.269E-05
   -.106E-02 -.292E-04 -.147E-04   0.101E-02 0.168E-04 0.168E-04   0.176E-03 0.127E-03 0.124E-03   0.148E-04 0.374E-05 -.768E-05
   -.508E-03 0.520E-03 0.537E-03   0.490E-03 -.507E-03 -.507E-03   -.979E-04 -.147E-03 -.149E-03   0.127E-04 0.684E-05 -.868E-05
   -.542E-03 -.538E-03 0.505E-03   0.507E-03 0.507E-03 -.490E-03   0.148E-03 0.148E-03 0.972E-04   0.145E-04 0.105E-04 -.968E-05
   0.156E-04 0.177E-04 0.106E-02   -.168E-04 -.168E-04 -.101E-02   -.125E-03 -.125E-03 -.177E-03   0.804E-05 0.555E-05 -.827E-05
   -.600E-03 0.151E-03 0.423E-03   0.521E-03 -.449E-04 -.476E-03   0.602E-04 -.465E-04 0.973E-05   -.608E-06 0.706E-05 -.172E-06
   -.426E-03 -.159E-03 0.597E-03   0.476E-03 0.449E-04 -.521E-03   -.918E-05 0.491E-04 -.611E-04   0.239E-05 -.225E-05 0.490E-05
   -.105E-02 -.323E-04 -.293E-04   0.101E-02 0.168E-04 0.168E-04   0.177E-03 0.128E-03 0.126E-03   0.130E-05 0.607E-05 0.515E-05
   -.484E-03 0.533E-03 0.530E-03   0.490E-03 -.507E-03 -.507E-03   -.984E-04 -.146E-03 -.150E-03   -.109E-04 -.688E-05 -.657E-06
   0.173E-03 -.592E-03 0.430E-03   -.449E-04 0.521E-03 -.476E-03   -.499E-04 0.607E-04 0.845E-05   -.116E-04 -.850E-05 -.613E-05
   -.160E-03 -.425E-03 0.608E-03   0.449E-04 0.476E-03 -.521E-03   0.496E-04 -.672E-05 -.597E-04   -.175E-05 -.109E-05 -.797E-05
   0.820E-04 0.929E-04 0.355E-03   -.309E-04 -.309E-04 -.462E-03   -.136E-03 -.136E-03 -.782E-04   0.540E-05 -.524E-05 -.450E-05
   -.626E-03 -.605E-03 0.152E-03   0.538E-03 0.538E-03 -.282E-04   0.166E-03 0.164E-03 0.557E-04   0.182E-04 -.192E-05 0.129E-05
   -.370E-03 -.965E-04 -.952E-04   0.462E-03 0.309E-04 0.309E-04   -.218E-04 0.387E-04 0.386E-04   0.125E-04 -.147E-05 -.215E-05
   -.686E-03 0.836E-04 0.918E-04   0.552E-03 -.141E-04 -.141E-04   0.759E-04 -.307E-04 -.315E-04   0.710E-05 -.445E-05 -.116E-04
   0.147E-03 -.597E-03 0.431E-03   -.449E-04 0.521E-03 -.476E-03   -.456E-04 0.624E-04 0.949E-05   0.982E-05 -.540E-05 -.800E-05
   -.164E-03 -.409E-03 0.606E-03   0.449E-04 0.476E-03 -.521E-03   0.468E-04 -.103E-04 -.609E-04   0.601E-05 -.141E-04 -.452E-05
   0.859E-04 0.101E-03 0.345E-03   -.309E-04 -.309E-04 -.462E-03   -.136E-03 -.135E-03 -.785E-04   0.105E-05 -.150E-04 0.583E-05
   -.603E-03 -.599E-03 0.149E-03   0.538E-03 0.538E-03 -.282E-04   0.164E-03 0.167E-03 0.553E-04   -.298E-05 -.108E-04 0.519E-05
   -.353E-03 -.782E-04 -.100E-03   0.462E-03 0.309E-04 0.309E-04   -.197E-04 0.367E-04 0.387E-04   -.704E-05 -.177E-04 0.282E-05
   -.675E-03 0.925E-04 0.789E-04   0.552E-03 -.141E-04 -.141E-04   0.795E-04 -.310E-04 -.305E-04   -.791E-05 -.130E-04 0.128E-06
   -.235E-04 -.105E-02 -.129E-04   0.168E-04 0.101E-02 0.168E-04   0.127E-03 0.176E-03 0.124E-03   -.179E-05 0.343E-06 -.943E-05
   0.527E-03 -.503E-03 0.524E-03   -.507E-03 0.490E-03 -.507E-03   -.147E-03 -.980E-04 -.149E-03   -.134E-05 0.741E-05 0.526E-05
   -.108E-03 -.368E-03 -.104E-03   0.309E-04 0.462E-03 0.309E-04   0.387E-04 -.181E-04 0.403E-04   0.103E-04 0.644E-05 0.523E-05
   0.774E-04 -.686E-03 0.912E-04   -.141E-04 0.552E-03 -.141E-04   -.330E-04 0.763E-04 -.333E-04   0.438E-05 0.744E-05 -.903E-05
   -.552E-03 -.540E-03 -.526E-03   0.524E-03 0.524E-03 0.524E-03   0.155E-03 0.154E-03 0.155E-03   0.744E-05 -.265E-05 -.189E-04
   0.152E-05 0.168E-05 0.196E-04   0.580E-08 0.580E-08 0.580E-08   -.120E-03 -.117E-03 -.118E-03   0.678E-05 0.301E-05 -.130E-04
   -.389E-04 -.104E-02 -.252E-04   0.168E-04 0.101E-02 0.168E-04   0.127E-03 0.176E-03 0.127E-03   0.140E-04 -.101E-04 -.277E-06
   0.510E-03 -.489E-03 0.527E-03   -.507E-03 0.490E-03 -.507E-03   -.146E-03 -.981E-04 -.148E-03   0.162E-04 -.629E-05 0.547E-06
   -.974E-04 -.348E-03 -.916E-04   0.309E-04 0.462E-03 0.309E-04   0.370E-04 -.196E-04 0.362E-04   0.170E-05 -.125E-04 -.328E-05
   0.765E-04 -.678E-03 0.828E-04   -.141E-04 0.552E-03 -.141E-04   -.299E-04 0.782E-04 -.321E-04   0.207E-05 -.291E-05 -.211E-05
   -.542E-03 -.536E-03 -.544E-03   0.524E-03 0.524E-03 0.524E-03   0.155E-03 0.155E-03 0.156E-03   -.212E-05 -.836E-05 -.188E-05
   0.104E-04 0.395E-05 0.142E-04   0.580E-08 0.580E-08 0.580E-08   -.117E-03 -.119E-03 -.122E-03   -.617E-05 0.332E-05 -.441E-05
   -.522E-03 -.538E-03 0.491E-03   0.507E-03 0.507E-03 -.490E-03   0.149E-03 0.147E-03 0.983E-04   -.651E-05 0.117E-04 0.400E-05
   0.218E-04 0.277E-04 0.105E-02   -.168E-04 -.168E-04 -.101E-02   -.125E-03 -.128E-03 -.175E-03   0.174E-05 -.147E-05 -.436E-05
   -.597E-03 0.152E-03 0.434E-03   0.521E-03 -.449E-04 -.476E-03   0.578E-04 -.484E-04 0.107E-04   -.137E-05 0.853E-05 -.129E-04
   -.416E-03 -.166E-03 0.606E-03   0.476E-03 0.449E-04 -.521E-03   -.932E-05 0.480E-04 -.598E-04   -.839E-05 0.585E-05 -.629E-05
   -.105E-02 -.375E-04 -.150E-04   0.101E-02 0.168E-04 0.168E-04   0.176E-03 0.126E-03 0.126E-03   0.425E-05 0.139E-04 -.936E-05
   -.502E-03 0.509E-03 0.526E-03   0.490E-03 -.507E-03 -.507E-03   -.964E-04 -.145E-03 -.148E-03   0.488E-05 0.163E-04 0.246E-05
   -.536E-03 -.536E-03 0.495E-03   0.507E-03 0.507E-03 -.490E-03   0.147E-03 0.149E-03 0.967E-04   0.923E-05 0.800E-05 0.111E-05
   0.166E-04 0.711E-05 0.104E-02   -.168E-04 -.168E-04 -.101E-02   -.126E-03 -.125E-03 -.175E-03   0.726E-05 0.161E-04 0.925E-05
   -.607E-03 0.144E-03 0.415E-03   0.521E-03 -.449E-04 -.476E-03   0.608E-04 -.468E-04 0.102E-04   0.665E-05 0.143E-04 0.766E-05
   -.419E-03 -.177E-03 0.598E-03   0.476E-03 0.449E-04 -.521E-03   -.110E-04 0.488E-04 -.614E-04   -.237E-05 0.169E-04 0.328E-05
   -.104E-02 -.405E-04 -.260E-04   0.101E-02 0.168E-04 0.168E-04   0.176E-03 0.126E-03 0.126E-03   -.604E-05 0.165E-04 0.185E-05
   -.488E-03 0.514E-03 0.525E-03   0.490E-03 -.507E-03 -.507E-03   -.978E-04 -.145E-03 -.148E-03   -.744E-05 0.107E-04 0.199E-05
   0.162E-03 -.601E-03 0.421E-03   -.449E-04 0.521E-03 -.476E-03   -.494E-04 0.602E-04 0.105E-04   0.358E-06 0.975E-06 0.962E-06
   -.156E-03 -.429E-03 0.588E-03   0.449E-04 0.476E-03 -.521E-03   0.492E-04 -.997E-05 -.601E-04   -.552E-05 0.625E-05 0.123E-04
   0.941E-04 0.784E-04 0.348E-03   -.309E-04 -.309E-04 -.462E-03   -.136E-03 -.137E-03 -.775E-04   -.681E-05 0.976E-05 0.987E-06
   -.602E-03 -.612E-03 0.151E-03   0.538E-03 0.538E-03 -.282E-04   0.165E-03 0.165E-03 0.554E-04   -.592E-05 0.514E-05 0.295E-05
   -.362E-03 -.105E-03 -.980E-04   0.462E-03 0.309E-04 0.309E-04   -.181E-04 0.377E-04 0.359E-04   0.234E-07 0.883E-05 0.341E-05
   -.687E-03 0.735E-04 0.802E-04   0.552E-03 -.141E-04 -.141E-04   0.781E-04 -.313E-04 -.342E-04   0.624E-05 0.677E-05 0.273E-05
   0.145E-03 -.611E-03 0.416E-03   -.449E-04 0.521E-03 -.476E-03   -.450E-04 0.600E-04 0.878E-05   0.111E-04 0.110E-04 0.881E-05
   -.171E-03 -.425E-03 0.603E-03   0.449E-04 0.476E-03 -.521E-03   0.480E-04 -.115E-04 -.611E-04   0.120E-04 0.376E-05 -.223E-05
   0.841E-04 0.832E-04 0.358E-03   -.309E-04 -.309E-04 -.462E-03   -.136E-03 -.137E-03 -.795E-04   0.298E-05 0.552E-05 -.683E-05
   -.599E-03 -.608E-03 0.161E-03   0.538E-03 0.538E-03 -.282E-04   0.164E-03 0.165E-03 0.555E-04   -.673E-05 0.854E-06 -.734E-05
   -.357E-03 -.891E-04 -.924E-04   0.462E-03 0.309E-04 0.309E-04   -.178E-04 0.367E-04 0.396E-04   -.547E-05 -.640E-05 -.636E-05
   -.672E-03 0.859E-04 0.849E-04   0.552E-03 -.141E-04 -.141E-04   0.778E-04 -.308E-04 -.327E-04   -.944E-05 -.650E-05 -.326E-05
   -.229E-04 -.105E-02 -.315E-04   0.168E-04 0.101E-02 0.168E-04   0.127E-03 0.176E-03 0.127E-03   -.189E-05 0.627E-05 0.678E-05
   0.538E-03 -.492E-03 0.532E-03   -.507E-03 0.490E-03 -.507E-03   -.148E-03 -.983E-04 -.149E-03   -.101E-04 -.292E-05 -.402E-05
   -.931E-04 -.363E-03 -.987E-04   0.309E-04 0.462E-03 0.309E-04   0.393E-04 -.211E-04 0.392E-04   -.516E-05 0.475E-05 0.584E-06
   0.822E-04 -.679E-03 0.770E-04   -.141E-04 0.552E-03 -.141E-04   -.312E-04 0.779E-04 -.314E-04   -.208E-05 -.221E-05 0.328E-05
   -.541E-03 -.546E-03 -.550E-03   0.524E-03 0.524E-03 0.524E-03   0.153E-03 0.155E-03 0.155E-03   -.217E-05 0.165E-05 0.636E-05
   -.432E-05 0.477E-06 0.691E-05   0.580E-08 0.580E-08 0.580E-08   -.117E-03 -.117E-03 -.119E-03   0.962E-05 0.479E-05 -.461E-06
   -.326E-04 -.105E-02 -.105E-04   0.168E-04 0.101E-02 0.168E-04   0.125E-03 0.177E-03 0.123E-03   0.986E-05 0.466E-05 -.109E-04
   0.513E-03 -.504E-03 0.533E-03   -.507E-03 0.490E-03 -.507E-03   -.148E-03 -.966E-04 -.147E-03   0.142E-04 0.761E-05 -.682E-05
   -.979E-04 -.364E-03 -.982E-04   0.309E-04 0.462E-03 0.309E-04   0.387E-04 -.193E-04 0.420E-04   0.182E-06 0.314E-05 -.303E-05
   0.901E-04 -.678E-03 0.910E-04   -.141E-04 0.552E-03 -.141E-04   -.314E-04 0.758E-04 -.344E-04   -.102E-04 -.721E-06 -.792E-05
   -.539E-03 -.547E-03 -.546E-03   0.524E-03 0.524E-03 0.524E-03   0.154E-03 0.154E-03 0.153E-03   -.511E-05 0.417E-05 0.369E-05
   0.350E-05 -.985E-06 -.464E-05   0.580E-08 0.580E-08 0.580E-08   -.117E-03 -.117E-03 -.121E-03   0.171E-05 0.584E-05 0.141E-04
   -.125E-05 0.743E-05 -.102E-04   -.580E-08 -.580E-08 -.580E-08   0.118E-03 0.118E-03 0.118E-03   -.463E-05 -.136E-04 0.402E-05
   0.536E-03 0.554E-03 0.529E-03   -.524E-03 -.524E-03 -.524E-03   -.153E-03 -.154E-03 -.153E-03   0.610E-05 -.104E-04 0.130E-04
   -.862E-04 0.681E-03 -.873E-04   0.141E-04 -.552E-03 0.141E-04   0.294E-04 -.774E-04 0.308E-04   0.837E-05 -.133E-06 0.796E-05
   0.846E-04 0.366E-03 0.923E-04   -.309E-04 -.462E-03 -.309E-04   -.395E-04 0.187E-04 -.380E-04   0.139E-04 -.506E-05 0.449E-05
   -.529E-03 0.501E-03 -.528E-03   0.507E-03 -.490E-03 0.507E-03   0.146E-03 0.972E-04 0.149E-03   0.396E-05 -.537E-05 -.130E-05
   0.316E-04 0.106E-02 0.269E-04   -.168E-04 -.101E-02 -.168E-04   -.127E-03 -.176E-03 -.127E-03   -.594E-05 -.135E-04 -.155E-05
   -.531E-05 0.328E-05 -.733E-05   -.580E-08 -.580E-08 -.580E-08   0.119E-03 0.118E-03 0.121E-03   -.151E-05 -.926E-05 -.169E-05
   0.551E-03 0.554E-03 0.549E-03   -.524E-03 -.524E-03 -.524E-03   -.155E-03 -.154E-03 -.155E-03   -.624E-05 -.108E-04 -.518E-05
   -.708E-04 0.691E-03 -.837E-04   0.141E-04 -.552E-03 0.141E-04   0.332E-04 -.797E-04 0.319E-04   -.114E-04 -.749E-05 0.300E-05
   0.109E-03 0.372E-03 0.969E-04   -.309E-04 -.462E-03 -.309E-04   -.383E-04 0.199E-04 -.394E-04   -.114E-04 -.131E-04 0.161E-05
   -.515E-03 0.512E-03 -.536E-03   0.507E-03 -.490E-03 0.507E-03   0.148E-03 0.983E-04 0.150E-03   -.133E-04 -.173E-04 0.622E-05
   0.383E-04 0.107E-02 0.206E-04   -.168E-04 -.101E-02 -.168E-04   -.127E-03 -.177E-03 -.127E-03   -.142E-04 -.226E-04 0.458E-05
   0.678E-03 -.688E-04 -.901E-04   -.552E-03 0.141E-04 0.141E-04   -.774E-04 0.310E-04 0.330E-04   0.317E-05 -.108E-04 0.852E-05
   0.350E-03 0.105E-03 0.929E-04   -.462E-03 -.309E-04 -.309E-04   0.190E-04 -.393E-04 -.389E-04   0.106E-04 -.714E-05 0.484E-05
   0.592E-03 0.609E-03 -.156E-03   -.538E-03 -.538E-03 0.282E-04   -.166E-03 -.165E-03 -.549E-04   0.173E-04 -.174E-05 0.150E-05
   -.926E-04 -.851E-04 -.346E-03   0.309E-04 0.309E-04 0.462E-03   0.135E-03 0.135E-03 0.772E-04   0.638E-05 -.647E-06 -.292E-05
   0.164E-03 0.430E-03 -.593E-03   -.449E-04 -.476E-03 0.521E-03   -.492E-04 0.889E-05 0.602E-04   -.292E-05 -.614E-05 -.791E-05
   -.163E-03 0.602E-03 -.416E-03   0.449E-04 -.521E-03 0.476E-03   0.505E-04 -.589E-04 -.984E-05   0.776E-06 -.373E-05 -.658E-05
   0.679E-03 -.716E-04 -.695E-04   -.552E-03 0.141E-04 0.141E-04   -.781E-04 0.318E-04 0.296E-04   0.245E-05 -.884E-05 -.891E-05
   0.360E-03 0.911E-04 0.985E-04   -.462E-03 -.309E-04 -.309E-04   0.203E-04 -.356E-04 -.384E-04   -.159E-06 0.338E-05 -.141E-05
   0.613E-03 0.614E-03 -.160E-03   -.538E-03 -.538E-03 0.282E-04   -.164E-03 -.164E-03 -.539E-04   -.661E-05 -.730E-05 0.476E-05
   -.696E-04 -.831E-04 -.355E-03   0.309E-04 0.309E-04 0.462E-03   0.136E-03 0.137E-03 0.777E-04   -.177E-04 -.542E-05 0.512E-05
   0.179E-03 0.434E-03 -.607E-03   -.449E-04 -.476E-03 0.521E-03   -.498E-04 0.111E-04 0.602E-04   -.181E-04 -.123E-04 0.615E-05
   -.149E-03 0.608E-03 -.434E-03   0.449E-04 -.521E-03 0.476E-03   0.486E-04 -.584E-04 -.109E-04   -.120E-04 -.102E-04 0.125E-04
   0.492E-03 -.532E-03 -.532E-03   -.490E-03 0.507E-03 0.507E-03   0.960E-04 0.147E-03 0.147E-03   0.616E-05 0.573E-05 0.606E-05
   0.104E-02 0.119E-04 0.180E-04   -.101E-02 -.168E-04 -.168E-04   -.177E-03 -.124E-03 -.125E-03   0.956E-05 0.112E-04 0.545E-05
   0.416E-03 0.159E-03 -.599E-03   -.476E-03 -.449E-04 0.521E-03   0.106E-04 -.483E-04 0.626E-04   0.606E-05 0.639E-06 -.364E-05
   0.599E-03 -.157E-03 -.409E-03   -.521E-03 0.449E-04 0.476E-03   -.600E-04 0.479E-04 -.965E-05   0.104E-05 -.291E-05 -.139E-04
   -.269E-04 -.263E-04 -.104E-02   0.168E-04 0.168E-04 0.101E-02   0.126E-03 0.126E-03 0.177E-03   0.319E-05 0.213E-05 -.994E-05
   0.518E-03 0.529E-03 -.490E-03   -.507E-03 -.507E-03 0.490E-03   -.147E-03 -.150E-03 -.996E-04   0.841E-05 -.332E-06 -.423E-05
   0.491E-03 -.525E-03 -.526E-03   -.490E-03 0.507E-03 0.507E-03   0.968E-04 0.146E-03 0.147E-03   0.579E-05 -.278E-06 -.114E-05
   0.104E-02 0.203E-04 0.269E-04   -.101E-02 -.168E-04 -.168E-04   -.174E-03 -.127E-03 -.126E-03   0.431E-05 0.532E-05 -.225E-05
   0.427E-03 0.160E-03 -.601E-03   -.476E-03 -.449E-04 0.521E-03   0.105E-04 -.498E-04 0.595E-04   -.454E-05 0.240E-05 0.993E-06
   0.615E-03 -.167E-03 -.430E-03   -.521E-03 0.449E-04 0.476E-03   -.593E-04 0.482E-04 -.984E-05   -.158E-04 0.718E-05 0.782E-05
   -.599E-05 -.234E-04 -.105E-02   0.168E-04 0.168E-04 0.101E-02   0.124E-03 0.124E-03 0.176E-03   -.167E-04 0.131E-05 0.507E-05
   0.534E-03 0.518E-03 -.507E-03   -.507E-03 -.507E-03 0.490E-03   -.147E-03 -.148E-03 -.971E-04   -.788E-05 0.989E-05 0.108E-04
   -.998E-05 -.725E-05 0.244E-05   -.580E-08 -.580E-08 -.580E-08   0.120E-03 0.120E-03 0.118E-03   0.151E-05 -.131E-05 -.806E-05
   0.540E-03 0.548E-03 0.558E-03   -.524E-03 -.524E-03 -.524E-03   -.153E-03 -.155E-03 -.156E-03   0.292E-05 -.232E-05 -.130E-04
   -.768E-04 0.686E-03 -.683E-04   0.141E-04 -.552E-03 0.141E-04   0.303E-04 -.790E-04 0.303E-04   -.204E-05 -.358E-05 -.108E-04
   0.871E-04 0.347E-03 0.966E-04   -.309E-04 -.462E-03 -.309E-04   -.362E-04 0.222E-04 -.384E-04   0.795E-05 0.110E-04 0.635E-06
   -.532E-03 0.486E-03 -.542E-03   0.507E-03 -.490E-03 0.507E-03   0.146E-03 0.986E-04 0.152E-03   0.688E-05 0.884E-05 0.102E-04
   0.268E-04 0.104E-02 0.195E-04   -.168E-04 -.101E-02 -.168E-04   -.128E-03 -.177E-03 -.128E-03   -.407E-06 0.574E-05 0.655E-05
   -.547E-05 -.191E-04 -.150E-04   -.580E-08 -.580E-08 -.580E-08   0.116E-03 0.119E-03 0.120E-03   0.151E-05 0.120E-04 0.674E-05
   0.543E-03 0.535E-03 0.534E-03   -.524E-03 -.524E-03 -.524E-03   -.153E-03 -.154E-03 -.155E-03   -.504E-06 0.820E-05 0.118E-04
   -.698E-04 0.672E-03 -.896E-04   0.141E-04 -.552E-03 0.141E-04   0.313E-04 -.780E-04 0.323E-04   -.104E-04 0.908E-05 0.851E-05
   0.115E-03 0.354E-03 0.940E-04   -.309E-04 -.462E-03 -.309E-04   -.403E-04 0.217E-04 -.381E-04   -.164E-04 0.404E-05 0.301E-05
   -.519E-03 0.490E-03 -.538E-03   0.507E-03 -.490E-03 0.507E-03   0.149E-03 0.968E-04 0.150E-03   -.103E-04 0.638E-05 0.808E-05
   0.228E-04 0.106E-02 0.324E-04   -.168E-04 -.101E-02 -.168E-04   -.127E-03 -.178E-03 -.126E-03   0.258E-05 -.101E-04 -.791E-05
   0.687E-03 -.844E-04 -.876E-04   -.552E-03 0.141E-04 0.141E-04   -.794E-04 0.342E-04 0.306E-04   -.457E-05 0.910E-06 0.852E-05
   0.359E-03 0.943E-04 0.914E-04   -.462E-03 -.309E-04 -.309E-04   0.211E-04 -.397E-04 -.379E-04   -.196E-06 0.459E-05 0.522E-05
   0.607E-03 0.598E-03 -.159E-03   -.538E-03 -.538E-03 0.282E-04   -.164E-03 -.163E-03 -.560E-04   -.858E-06 0.814E-05 0.582E-05
   -.912E-04 -.843E-04 -.350E-03   0.309E-04 0.309E-04 0.462E-03   0.136E-03 0.136E-03 0.765E-04   0.443E-05 -.273E-05 0.172E-05
   0.157E-03 0.426E-03 -.601E-03   -.449E-04 -.476E-03 0.521E-03   -.502E-04 0.767E-05 0.582E-04   0.539E-05 -.137E-05 0.303E-05
   -.169E-03 0.605E-03 -.440E-03   0.449E-04 -.521E-03 0.476E-03   0.497E-04 -.597E-04 -.851E-05   0.704E-05 -.513E-05 0.161E-04
   0.678E-03 -.861E-04 -.881E-04   -.552E-03 0.141E-04 0.141E-04   -.782E-04 0.329E-04 0.305E-04   0.380E-05 0.451E-05 0.915E-05
   0.363E-03 0.936E-04 0.100E-03   -.462E-03 -.309E-04 -.309E-04   0.217E-04 -.383E-04 -.396E-04   -.506E-05 0.356E-05 -.224E-05
   0.615E-03 0.605E-03 -.139E-03   -.538E-03 -.538E-03 0.282E-04   -.162E-03 -.164E-03 -.569E-04   -.111E-04 0.157E-05 -.139E-04
   -.724E-04 -.857E-04 -.331E-03   0.309E-04 0.309E-04 0.462E-03   0.137E-03 0.136E-03 0.758E-04   -.163E-04 -.179E-05 -.164E-04
   0.166E-03 0.432E-03 -.596E-03   -.449E-04 -.476E-03 0.521E-03   -.494E-04 0.968E-05 0.615E-04   -.480E-05 -.951E-05 -.633E-05
   -.159E-03 0.602E-03 -.437E-03   0.449E-04 -.521E-03 0.476E-03   0.496E-04 -.599E-04 -.858E-05   -.197E-05 -.201E-05 0.130E-04
   0.506E-03 -.524E-03 -.529E-03   -.490E-03 0.507E-03 0.507E-03   0.974E-04 0.150E-03 0.147E-03   -.101E-04 -.534E-05 0.299E-05
   0.106E-02 0.332E-04 0.233E-04   -.101E-02 -.168E-04 -.168E-04   -.178E-03 -.125E-03 -.126E-03   -.766E-05 -.102E-04 0.426E-06
   0.424E-03 0.171E-03 -.607E-03   -.476E-03 -.449E-04 0.521E-03   0.100E-04 -.503E-04 0.612E-04   -.186E-05 -.943E-05 0.543E-05
   0.599E-03 -.160E-03 -.435E-03   -.521E-03 0.449E-04 0.476E-03   -.619E-04 0.500E-04 -.981E-05   0.330E-05 -.191E-05 0.125E-04
   -.337E-04 -.177E-04 -.106E-02   0.168E-04 0.168E-04 0.101E-02   0.126E-03 0.124E-03 0.178E-03   0.105E-04 -.419E-05 0.156E-04
   0.522E-03 0.533E-03 -.501E-03   -.507E-03 -.507E-03 0.490E-03   -.148E-03 -.149E-03 -.985E-04   0.555E-05 -.472E-05 0.718E-05
   0.496E-03 -.529E-03 -.522E-03   -.490E-03 0.507E-03 0.507E-03   0.965E-04 0.148E-03 0.148E-03   0.113E-05 0.145E-05 -.598E-05
   0.106E-02 0.261E-04 0.307E-04   -.101E-02 -.168E-04 -.168E-04   -.175E-03 -.126E-03 -.125E-03   -.130E-04 -.140E-05 -.747E-05
   0.442E-03 0.158E-03 -.596E-03   -.476E-03 -.449E-04 0.521E-03   0.974E-05 -.486E-04 0.615E-04   -.197E-04 0.314E-05 -.571E-05
   0.620E-03 -.162E-03 -.432E-03   -.521E-03 0.449E-04 0.476E-03   -.619E-04 0.499E-04 -.964E-05   -.180E-04 0.402E-06 0.914E-05
   -.180E-04 -.192E-04 -.107E-02   0.168E-04 0.168E-04 0.101E-02   0.127E-03 0.125E-03 0.178E-03   -.778E-05 -.379E-05 0.201E-04
   0.536E-03 0.544E-03 -.508E-03   -.507E-03 -.507E-03 0.490E-03   -.148E-03 -.151E-03 -.970E-04   -.813E-05 -.139E-04 0.121E-04
   -.973E-04 -.696E-04 0.676E-03   0.141E-04 0.141E-04 -.552E-03   0.318E-04 0.308E-04 -.803E-04   0.170E-04 -.103E-04 0.808E-05
   0.725E-04 0.994E-04 0.349E-03   -.309E-04 -.309E-04 -.462E-03   -.387E-04 -.389E-04 0.203E-04   0.254E-04 -.136E-05 0.998E-05
   -.171E-03 0.603E-03 0.600E-03   0.282E-04 -.538E-03 -.538E-03   -.531E-04 -.163E-03 -.165E-03   0.147E-04 0.171E-05 0.832E-05
   -.339E-03 -.858E-04 -.770E-04   0.462E-03 0.309E-04 0.309E-04   0.760E-04 0.134E-03 0.136E-03   -.847E-05 0.101E-05 -.981E-05
   -.586E-03 0.428E-03 0.168E-03   0.521E-03 -.476E-03 -.449E-04   0.598E-04 0.995E-05 -.493E-04   -.150E-04 -.498E-05 -.717E-05
   -.420E-03 0.600E-03 -.168E-03   0.476E-03 -.521E-03 0.449E-04   -.905E-05 -.581E-04 0.512E-04   -.353E-05 -.195E-05 0.565E-05
   -.748E-04 -.720E-04 0.682E-03   0.141E-04 0.141E-04 -.552E-03   0.322E-04 0.322E-04 -.791E-04   -.601E-05 -.932E-05 0.853E-06
   0.104E-03 0.102E-03 0.361E-03   -.309E-04 -.309E-04 -.462E-03   -.361E-04 -.405E-04 0.209E-04   -.902E-05 -.227E-05 -.280E-05
   -.143E-03 0.609E-03 0.612E-03   0.282E-04 -.538E-03 -.538E-03   -.531E-04 -.162E-03 -.164E-03   -.145E-04 -.524E-05 -.623E-05
   -.332E-03 -.733E-04 -.730E-04   0.462E-03 0.309E-04 0.309E-04   0.770E-04 0.134E-03 0.133E-03   -.167E-04 -.121E-04 -.110E-04
   -.606E-03 0.442E-03 0.166E-03   0.521E-03 -.476E-03 -.449E-04   0.621E-04 0.104E-04 -.502E-04   0.368E-05 -.207E-04 -.353E-05
   -.440E-03 0.608E-03 -.164E-03   0.476E-03 -.521E-03 0.449E-04   -.902E-05 -.597E-04 0.485E-04   0.171E-04 -.831E-05 0.368E-05
   0.588E-03 -.159E-03 0.596E-03   -.538E-03 0.282E-04 -.538E-03   -.166E-03 -.547E-04 -.166E-03   0.209E-04 0.413E-05 0.128E-04
   -.100E-03 -.354E-03 -.894E-04   0.309E-04 0.462E-03 0.309E-04   0.135E-03 0.746E-04 0.136E-03   0.143E-04 0.777E-05 0.289E-05
   0.534E-03 0.536E-03 0.543E-03   -.524E-03 -.524E-03 -.524E-03   -.252E-03 -.252E-03 -.252E-03   -.379E-06 -.333E-05 -.885E-05
   -.524E-03 -.534E-03 -.529E-03   0.524E-03 0.524E-03 0.524E-03   0.251E-03 0.252E-03 0.253E-03   -.959E-05 -.119E-06 -.655E-05
   0.865E-04 0.351E-03 0.857E-04   -.309E-04 -.462E-03 -.309E-04   -.135E-03 -.786E-04 -.136E-03   -.513E-06 -.207E-06 0.186E-05
   -.608E-03 0.151E-03 -.610E-03   0.538E-03 -.282E-04 0.538E-03   0.163E-03 0.547E-04 0.166E-03   0.266E-05 0.331E-05 0.136E-05
   0.616E-03 -.161E-03 0.606E-03   -.538E-03 0.282E-04 -.538E-03   -.166E-03 -.551E-04 -.163E-03   -.760E-05 0.681E-05 -.477E-06
   -.659E-04 -.361E-03 -.879E-04   0.309E-04 0.462E-03 0.309E-04   0.135E-03 0.772E-04 0.139E-03   -.207E-04 0.119E-04 -.245E-05
   0.562E-03 0.528E-03 0.533E-03   -.524E-03 -.524E-03 -.524E-03   -.253E-03 -.252E-03 -.251E-03   -.286E-04 0.577E-05 0.559E-07
   -.518E-03 -.550E-03 -.542E-03   0.524E-03 0.524E-03 0.524E-03   0.252E-03 0.253E-03 0.254E-03   -.157E-04 0.148E-04 0.568E-05
   0.883E-04 0.348E-03 0.792E-04   -.309E-04 -.462E-03 -.309E-04   -.137E-03 -.773E-04 -.138E-03   -.780E-06 0.160E-05 0.996E-05
   -.625E-03 0.139E-03 -.619E-03   0.538E-03 -.282E-04 0.538E-03   0.165E-03 0.552E-04 0.165E-03   0.187E-04 0.154E-04 0.112E-04
   0.411E-03 -.615E-03 0.156E-03   -.476E-03 0.521E-03 -.449E-04   0.104E-04 0.618E-04 -.464E-04   0.111E-04 0.122E-04 0.232E-05
   0.600E-03 -.427E-03 -.150E-03   -.521E-03 0.476E-03 0.449E-04   -.611E-04 -.105E-04 0.491E-04   0.147E-05 0.463E-05 -.113E-04
   0.356E-03 0.841E-04 0.981E-04   -.462E-03 -.309E-04 -.309E-04   -.775E-04 -.137E-03 -.136E-03   -.644E-05 0.468E-05 -.106E-04
   0.155E-03 -.615E-03 -.601E-03   -.282E-04 0.538E-03 0.538E-03   0.553E-04 0.166E-03 0.165E-03   -.107E-05 0.598E-05 -.667E-05
   -.104E-03 -.936E-04 -.357E-03   0.309E-04 0.309E-04 0.462E-03   0.388E-04 0.362E-04 -.201E-04   0.673E-05 -.128E-05 -.268E-05
   0.715E-04 0.850E-04 -.684E-03   -.141E-04 -.141E-04 0.552E-03   -.307E-04 -.330E-04 0.781E-04   0.812E-05 -.309E-05 0.224E-05
   0.422E-03 -.605E-03 0.165E-03   -.476E-03 0.521E-03 -.449E-04   0.115E-04 0.601E-04 -.503E-04   -.961E-06 0.515E-05 -.291E-05
   0.613E-03 -.427E-03 -.158E-03   -.521E-03 0.476E-03 0.449E-04   -.601E-04 -.108E-04 0.485E-04   -.132E-04 0.583E-05 -.304E-05
   0.365E-03 0.791E-04 0.885E-04   -.462E-03 -.309E-04 -.309E-04   -.754E-04 -.138E-03 -.139E-03   -.180E-04 0.102E-04 0.172E-05
   0.153E-03 -.623E-03 -.611E-03   -.282E-04 0.538E-03 0.538E-03   0.563E-04 0.164E-03 0.165E-03   -.263E-06 0.167E-04 0.374E-05
   -.108E-03 -.117E-03 -.373E-03   0.309E-04 0.309E-04 0.462E-03   0.394E-04 0.391E-04 -.200E-04   0.927E-05 0.190E-04 0.140E-04
   0.739E-04 0.672E-04 -.686E-03   -.141E-04 -.141E-04 0.552E-03   -.364E-04 -.310E-04 0.781E-04   0.123E-04 0.130E-04 0.515E-05
   -.917E-04 -.775E-04 0.693E-03   0.141E-04 0.141E-04 -.552E-03   0.302E-04 0.321E-04 -.781E-04   0.132E-04 -.355E-05 -.114E-04
   0.923E-04 0.921E-04 0.365E-03   -.309E-04 -.309E-04 -.462E-03   -.387E-04 -.376E-04 0.209E-04   0.501E-05 0.476E-05 -.597E-05
   -.156E-03 0.599E-03 0.610E-03   0.282E-04 -.538E-03 -.538E-03   -.557E-04 -.165E-03 -.163E-03   0.261E-05 0.844E-05 -.476E-05
   -.338E-03 -.864E-04 -.880E-04   0.462E-03 0.309E-04 0.309E-04   0.752E-04 0.136E-03 0.136E-03   -.879E-05 -.122E-05 0.876E-06
   -.598E-03 0.424E-03 0.152E-03   0.521E-03 -.476E-03 -.449E-04   0.592E-04 0.109E-04 -.471E-04   -.153E-05 -.262E-05 0.616E-05
   -.424E-03 0.612E-03 -.168E-03   0.476E-03 -.521E-03 0.449E-04   -.108E-04 -.623E-04 0.488E-04   0.193E-05 -.924E-05 0.781E-05
   -.717E-04 -.772E-04 0.676E-03   0.141E-04 0.141E-04 -.552E-03   0.298E-04 0.307E-04 -.790E-04   -.661E-05 -.273E-05 0.618E-05
   0.102E-03 0.926E-04 0.350E-03   -.309E-04 -.309E-04 -.462E-03   -.368E-04 -.394E-04 0.209E-04   -.632E-05 0.583E-05 0.835E-05
   -.147E-03 0.597E-03 0.600E-03   0.282E-04 -.538E-03 -.538E-03   -.545E-04 -.164E-03 -.165E-03   -.863E-05 0.945E-05 0.735E-05
   -.348E-03 -.890E-04 -.777E-04   0.462E-03 0.309E-04 0.309E-04   0.752E-04 0.135E-03 0.136E-03   0.168E-05 0.326E-05 -.991E-05
   -.611E-03 0.433E-03 0.173E-03   0.521E-03 -.476E-03 -.449E-04   0.623E-04 0.820E-05 -.501E-04   0.776E-05 -.855E-05 -.113E-04
   -.438E-03 0.611E-03 -.151E-03   0.476E-03 -.521E-03 0.449E-04   -.106E-04 -.620E-04 0.506E-04   0.168E-04 -.916E-05 -.114E-04
   0.595E-03 -.156E-03 0.612E-03   -.538E-03 0.282E-04 -.538E-03   -.163E-03 -.545E-04 -.165E-03   0.101E-04 0.954E-06 -.343E-05
   -.873E-04 -.340E-03 -.775E-04   0.309E-04 0.462E-03 0.309E-04   0.134E-03 0.749E-04 0.136E-03   0.242E-05 -.705E-05 -.971E-05
   0.532E-03 0.542E-03 0.539E-03   -.524E-03 -.524E-03 -.524E-03   -.251E-03 -.254E-03 -.254E-03   0.123E-05 -.596E-05 -.291E-05
   -.537E-03 -.535E-03 -.532E-03   0.524E-03 0.524E-03 0.524E-03   0.254E-03 0.253E-03 0.250E-03   0.137E-05 -.639E-06 -.384E-06
   0.851E-04 0.354E-03 0.734E-04   -.309E-04 -.462E-03 -.309E-04   -.135E-03 -.772E-04 -.136E-03   0.854E-06 -.466E-05 0.140E-04
   -.601E-03 0.162E-03 -.631E-03   0.538E-03 -.282E-04 0.538E-03   0.162E-03 0.551E-04 0.167E-03   -.314E-05 -.754E-05 0.217E-04
   0.618E-03 -.155E-03 0.595E-03   -.538E-03 0.282E-04 -.538E-03   -.167E-03 -.545E-04 -.165E-03   -.828E-05 0.126E-07 0.129E-04
   -.799E-04 -.346E-03 -.799E-04   0.309E-04 0.462E-03 0.309E-04   0.136E-03 0.761E-04 0.138E-03   -.771E-05 -.102E-05 -.946E-05
   0.545E-03 0.533E-03 0.554E-03   -.524E-03 -.524E-03 -.524E-03   -.252E-03 -.253E-03 -.252E-03   -.116E-04 0.158E-05 -.206E-04
   -.534E-03 -.540E-03 -.519E-03   0.524E-03 0.524E-03 0.524E-03   0.252E-03 0.252E-03 0.253E-03   0.368E-06 0.564E-05 -.162E-04
   0.779E-04 0.348E-03 0.871E-04   -.309E-04 -.462E-03 -.309E-04   -.136E-03 -.767E-04 -.136E-03   0.951E-05 0.841E-06 -.243E-06
   -.625E-03 0.152E-03 -.607E-03   0.538E-03 -.282E-04 0.538E-03   0.164E-03 0.550E-04 0.165E-03   0.192E-04 0.262E-05 -.142E-06
   0.424E-03 -.598E-03 0.171E-03   -.476E-03 0.521E-03 -.449E-04   0.739E-05 0.620E-04 -.514E-04   0.171E-05 -.439E-05 -.775E-05
   0.589E-03 -.426E-03 -.169E-03   -.521E-03 0.476E-03 0.449E-04   -.610E-04 -.838E-05 0.527E-04   0.120E-04 0.153E-05 0.406E-05
   0.343E-03 0.791E-04 0.810E-04   -.462E-03 -.309E-04 -.309E-04   -.787E-04 -.134E-03 -.137E-03   0.841E-05 0.599E-05 0.791E-05
   0.153E-03 -.615E-03 -.617E-03   -.282E-04 0.538E-03 0.538E-03   0.540E-04 0.165E-03 0.165E-03   0.242E-05 0.717E-05 0.964E-05
   -.973E-04 -.885E-04 -.368E-03   0.309E-04 0.309E-04 0.462E-03   0.409E-04 0.383E-04 -.203E-04   -.330E-05 -.881E-05 0.861E-05
   0.892E-04 0.100E-03 -.678E-03   -.141E-04 -.141E-04 0.552E-03   -.319E-04 -.326E-04 0.758E-04   -.837E-05 -.190E-04 -.546E-06
   0.429E-03 -.589E-03 0.165E-03   -.476E-03 0.521E-03 -.449E-04   0.987E-05 0.612E-04 -.487E-04   -.603E-05 -.131E-04 -.404E-05
   0.609E-03 -.415E-03 -.159E-03   -.521E-03 0.476E-03 0.449E-04   -.591E-04 -.112E-04 0.513E-04   -.103E-04 -.559E-05 -.435E-05
   0.361E-03 0.790E-04 0.967E-04   -.462E-03 -.309E-04 -.309E-04   -.773E-04 -.134E-03 -.138E-03   -.126E-04 0.614E-05 -.790E-05
   0.158E-03 -.611E-03 -.601E-03   -.282E-04 0.538E-03 0.538E-03   0.537E-04 0.166E-03 0.164E-03   -.146E-05 0.308E-05 -.590E-05
   -.109E-03 -.930E-04 -.364E-03   0.309E-04 0.309E-04 0.462E-03   0.414E-04 0.402E-04 -.194E-04   0.848E-05 -.657E-05 0.368E-05
   0.674E-04 0.937E-04 -.673E-03   -.141E-04 -.141E-04 0.552E-03   -.316E-04 -.319E-04 0.783E-04   0.136E-04 -.126E-04 -.845E-05
   -.551E-03 -.530E-03 0.490E-03   0.507E-03 0.507E-03 -.490E-03   0.148E-03 0.147E-03 0.966E-04   0.236E-04 0.324E-05 0.691E-05
   0.185E-04 0.236E-04 0.105E-02   -.168E-04 -.168E-04 -.101E-02   -.125E-03 -.128E-03 -.177E-03   0.460E-05 0.278E-05 0.205E-05
   -.588E-03 0.155E-03 0.428E-03   0.521E-03 -.449E-04 -.476E-03   0.610E-04 -.474E-04 0.109E-04   -.131E-04 0.361E-05 -.586E-05
   -.410E-03 -.163E-03 0.610E-03   0.476E-03 0.449E-04 -.521E-03   -.105E-04 0.482E-04 -.597E-04   -.124E-04 0.278E-05 -.110E-04
   -.104E-02 -.310E-04 -.235E-04   0.101E-02 0.168E-04 0.168E-04   0.176E-03 0.126E-03 0.126E-03   -.680E-05 0.713E-05 -.745E-06
   -.492E-03 0.515E-03 0.521E-03   0.490E-03 -.507E-03 -.507E-03   -.990E-04 -.148E-03 -.147E-03   -.216E-05 0.129E-04 0.582E-05
   -.523E-03 -.536E-03 0.497E-03   0.507E-03 0.507E-03 -.490E-03   0.148E-03 0.150E-03 0.999E-04   -.434E-05 0.626E-05 -.375E-05
   0.398E-04 0.106E-04 0.107E-02   -.168E-04 -.168E-04 -.101E-02   -.127E-03 -.127E-03 -.177E-03   -.151E-04 0.151E-04 -.190E-04
   -.596E-03 0.160E-03 0.436E-03   0.521E-03 -.449E-04 -.476E-03   0.596E-04 -.496E-04 0.116E-04   -.415E-05 0.180E-05 -.158E-04
   -.437E-03 -.175E-03 0.603E-03   0.476E-03 0.449E-04 -.521E-03   -.864E-05 0.499E-04 -.606E-04   0.127E-04 0.135E-04 -.196E-05
   -.107E-02 -.230E-04 -.286E-04   0.101E-02 0.168E-04 0.168E-04   0.174E-03 0.125E-03 0.127E-03   0.233E-04 -.307E-06 0.348E-05
   -.519E-03 0.515E-03 0.520E-03   0.490E-03 -.507E-03 -.507E-03   -.970E-04 -.147E-03 -.150E-03   0.225E-04 0.117E-04 0.104E-04
   0.153E-03 -.611E-03 0.422E-03   -.449E-04 0.521E-03 -.476E-03   -.477E-04 0.611E-04 0.116E-04   0.603E-05 0.960E-05 -.162E-05
   -.151E-03 -.427E-03 0.612E-03   0.449E-04 0.476E-03 -.521E-03   0.488E-04 -.116E-04 -.610E-04   -.959E-05 0.607E-05 -.109E-04
   0.935E-04 0.850E-04 0.365E-03   -.309E-04 -.309E-04 -.462E-03   -.137E-03 -.139E-03 -.800E-04   -.566E-05 0.526E-05 -.129E-04
   -.617E-03 -.624E-03 0.154E-03   0.538E-03 0.538E-03 -.282E-04   0.166E-03 0.168E-03 0.574E-04   0.923E-05 0.140E-04 -.234E-05
   -.367E-03 -.107E-03 -.974E-04   0.462E-03 0.309E-04 0.309E-04   -.180E-04 0.381E-04 0.375E-04   0.493E-05 0.997E-05 0.133E-05
   -.681E-03 0.779E-04 0.895E-04   0.552E-03 -.141E-04 -.141E-04   0.777E-04 -.336E-04 -.317E-04   0.714E-06 0.487E-05 -.948E-05
   0.177E-03 -.615E-03 0.436E-03   -.449E-04 0.521E-03 -.476E-03   -.483E-04 0.608E-04 0.829E-05   -.172E-04 0.138E-04 -.119E-04
   -.146E-03 -.439E-03 0.608E-03   0.449E-04 0.476E-03 -.521E-03   0.495E-04 -.888E-05 -.605E-04   -.159E-04 0.153E-04 -.709E-05
   0.856E-04 0.703E-04 0.346E-03   -.309E-04 -.309E-04 -.462E-03   -.136E-03 -.139E-03 -.776E-04   0.185E-05 0.205E-04 0.391E-05
   -.628E-03 -.628E-03 0.140E-03   0.538E-03 0.538E-03 -.282E-04   0.166E-03 0.164E-03 0.567E-04   0.193E-04 0.217E-04 0.125E-04
   -.378E-03 -.123E-03 -.104E-03   0.462E-03 0.309E-04 0.309E-04   -.220E-04 0.388E-04 0.380E-04   0.212E-04 0.257E-04 0.697E-05
   -.694E-03 0.664E-04 0.807E-04   0.552E-03 -.141E-04 -.141E-04   0.767E-04 -.330E-04 -.329E-04   0.151E-04 0.158E-04 0.152E-05
   -.168E-04 -.105E-02 -.167E-04   0.168E-04 0.101E-02 0.168E-04   0.125E-03 0.176E-03 0.127E-03   -.648E-05 0.207E-05 -.836E-05
   0.530E-03 -.495E-03 0.538E-03   -.507E-03 0.490E-03 -.507E-03   -.146E-03 -.973E-04 -.148E-03   -.511E-05 -.840E-06 -.974E-05
   -.999E-04 -.363E-03 -.914E-04   0.309E-04 0.462E-03 0.309E-04   0.399E-04 -.197E-04 0.402E-04   0.868E-06 0.316E-05 -.790E-05
   0.772E-04 -.672E-03 0.909E-04   -.141E-04 0.552E-03 -.141E-04   -.315E-04 0.765E-04 -.337E-04   0.323E-05 -.770E-05 -.843E-05
   -.553E-03 -.544E-03 -.542E-03   0.524E-03 0.524E-03 0.524E-03   0.154E-03 0.156E-03 0.155E-03   0.868E-05 -.142E-05 -.246E-05
   0.388E-05 0.803E-05 0.814E-05   0.580E-08 0.580E-08 0.580E-08   -.119E-03 -.118E-03 -.117E-03   0.334E-05 -.155E-05 -.299E-05
   -.716E-05 -.105E-02 -.159E-04   0.168E-04 0.101E-02 0.168E-04   0.124E-03 0.175E-03 0.123E-03   -.151E-04 0.584E-05 -.521E-05
   0.527E-03 -.503E-03 0.513E-03   -.507E-03 0.490E-03 -.507E-03   -.146E-03 -.962E-04 -.146E-03   -.261E-05 0.504E-05 0.122E-04
   -.109E-03 -.375E-03 -.104E-03   0.309E-04 0.462E-03 0.309E-04   0.374E-04 -.203E-04 0.380E-04   0.126E-04 0.157E-04 0.673E-05
   0.706E-04 -.688E-03 0.815E-04   -.141E-04 0.552E-03 -.141E-04   -.331E-04 0.776E-04 -.343E-04   0.115E-04 0.740E-05 0.195E-05
   -.559E-03 -.552E-03 -.549E-03   0.524E-03 0.524E-03 0.524E-03   0.155E-03 0.154E-03 0.157E-03   0.142E-04 0.826E-05 0.193E-05
   0.574E-05 0.897E-05 0.121E-04   0.580E-08 0.580E-08 0.580E-08   -.121E-03 -.118E-03 -.118E-03   0.321E-05 -.283E-05 -.578E-05
   -.523E-03 -.530E-03 0.502E-03   0.507E-03 0.507E-03 -.490E-03   0.146E-03 0.148E-03 0.984E-04   -.262E-05 0.211E-05 -.691E-05
   0.317E-04 0.148E-04 0.106E-02   -.168E-04 -.168E-04 -.101E-02   -.126E-03 -.125E-03 -.176E-03   -.768E-05 0.802E-05 -.104E-04
   -.594E-03 0.160E-03 0.428E-03   0.521E-03 -.449E-04 -.476E-03   0.594E-04 -.486E-04 0.101E-04   -.586E-05 0.296E-06 -.528E-05
   -.427E-03 -.168E-03 0.606E-03   0.476E-03 0.449E-04 -.521E-03   -.963E-05 0.502E-04 -.611E-04   0.367E-05 0.620E-05 -.445E-05
   -.106E-02 -.167E-04 -.211E-04   0.101E-02 0.168E-04 0.168E-04   0.178E-03 0.125E-03 0.125E-03   0.999E-05 -.691E-05 -.252E-05
   -.505E-03 0.530E-03 0.526E-03   0.490E-03 -.507E-03 -.507E-03   -.966E-04 -.147E-03 -.149E-03   0.857E-05 -.385E-05 0.312E-05
   -.532E-03 -.533E-03 0.486E-03   0.507E-03 0.507E-03 -.490E-03   0.148E-03 0.147E-03 0.965E-04   0.494E-05 0.598E-05 0.113E-04
   0.221E-04 0.221E-04 0.104E-02   -.168E-04 -.168E-04 -.101E-02   -.126E-03 -.126E-03 -.177E-03   0.157E-05 0.224E-05 0.902E-05
   -.604E-03 0.153E-03 0.430E-03   0.521E-03 -.449E-04 -.476E-03   0.596E-04 -.484E-04 0.103E-04   0.390E-05 0.688E-05 -.801E-05
   -.431E-03 -.162E-03 0.617E-03   0.476E-03 0.449E-04 -.521E-03   -.873E-05 0.502E-04 -.616E-04   0.669E-05 -.565E-06 -.151E-04
   -.106E-02 -.210E-04 -.762E-05   0.101E-02 0.168E-04 0.168E-04   0.177E-03 0.125E-03 0.125E-03   0.167E-04 -.182E-05 -.156E-04
   -.506E-03 0.527E-03 0.533E-03   0.490E-03 -.507E-03 -.507E-03   -.960E-04 -.148E-03 -.149E-03   0.827E-05 0.744E-06 -.420E-05
   0.161E-03 -.606E-03 0.442E-03   -.449E-04 0.521E-03 -.476E-03   -.489E-04 0.597E-04 0.697E-05   -.495E-06 0.602E-05 -.157E-04
   -.166E-03 -.434E-03 0.608E-03   0.449E-04 0.476E-03 -.521E-03   0.505E-04 -.745E-05 -.600E-04   0.380E-05 0.884E-05 -.824E-05
   0.909E-04 0.827E-04 0.348E-03   -.309E-04 -.309E-04 -.462E-03   -.136E-03 -.137E-03 -.758E-04   -.390E-05 0.574E-05 -.180E-06
   -.597E-03 -.615E-03 0.154E-03   0.538E-03 0.538E-03 -.282E-04   0.165E-03 0.165E-03 0.537E-04   -.100E-04 0.735E-05 0.233E-05
   -.363E-03 -.947E-04 -.107E-03   0.462E-03 0.309E-04 0.309E-04   -.192E-04 0.390E-04 0.380E-04   0.253E-05 -.314E-05 0.956E-05
   -.693E-03 0.862E-04 0.733E-04   0.552E-03 -.141E-04 -.141E-04   0.778E-04 -.290E-04 -.320E-04   0.123E-04 -.905E-05 0.787E-05
   0.155E-03 -.595E-03 0.425E-03   -.449E-04 0.521E-03 -.476E-03   -.489E-04 0.610E-04 0.867E-05   0.606E-05 -.709E-05 -.756E-06
   -.165E-03 -.419E-03 0.612E-03   0.449E-04 0.476E-03 -.521E-03   0.492E-04 -.914E-05 -.593E-04   0.409E-05 -.452E-05 -.134E-04
   0.833E-04 0.824E-04 0.363E-03   -.309E-04 -.309E-04 -.462E-03   -.137E-03 -.137E-03 -.755E-04   0.518E-05 0.647E-05 -.161E-04
   -.612E-03 -.611E-03 0.155E-03   0.538E-03 0.538E-03 -.282E-04   0.163E-03 0.166E-03 0.576E-04   0.734E-05 0.184E-05 -.323E-05
   -.371E-03 -.102E-03 -.971E-04   0.462E-03 0.309E-04 0.309E-04   -.225E-04 0.382E-04 0.403E-04   0.137E-04 0.471E-05 -.209E-05
   -.687E-03 0.809E-04 0.860E-04   0.552E-03 -.141E-04 -.141E-04   0.757E-04 -.305E-04 -.293E-04   0.819E-05 -.161E-05 -.825E-05
   -.340E-04 -.105E-02 -.173E-04   0.168E-04 0.101E-02 0.168E-04   0.124E-03 0.178E-03 0.123E-03   0.128E-04 0.399E-05 -.331E-05
   0.515E-03 -.501E-03 0.515E-03   -.507E-03 0.490E-03 -.507E-03   -.147E-03 -.972E-04 -.145E-03   0.115E-04 0.515E-05 0.951E-05
   -.922E-04 -.375E-03 -.102E-03   0.309E-04 0.462E-03 0.309E-04   0.400E-04 -.170E-04 0.388E-04   -.699E-05 0.127E-04 0.412E-05
   0.103E-03 -.690E-03 0.957E-04   -.141E-04 0.552E-03 -.141E-04   -.337E-04 0.781E-04 -.362E-04   -.203E-04 0.889E-05 -.107E-04
   -.545E-03 -.533E-03 -.541E-03   0.524E-03 0.524E-03 0.524E-03   0.158E-03 0.152E-03 0.156E-03   -.239E-05 -.905E-05 -.496E-05
   0.248E-05 0.755E-05 0.106E-04   0.580E-08 0.580E-08 0.580E-08   -.120E-03 -.118E-03 -.119E-03   0.551E-05 -.140E-05 -.290E-05
   -.316E-04 -.104E-02 -.173E-04   0.168E-04 0.101E-02 0.168E-04   0.126E-03 0.177E-03 0.126E-03   0.836E-05 -.105E-04 -.623E-05
   0.515E-03 -.491E-03 0.536E-03   -.507E-03 0.490E-03 -.507E-03   -.146E-03 -.998E-04 -.147E-03   0.992E-05 -.237E-05 -.100E-04
   -.107E-03 -.357E-03 -.809E-04   0.309E-04 0.462E-03 0.309E-04   0.395E-04 -.189E-04 0.392E-04   0.825E-05 -.364E-05 -.178E-04
   0.731E-04 -.664E-03 0.106E-03   -.141E-04 0.552E-03 -.141E-04   -.341E-04 0.768E-04 -.343E-04   0.102E-04 -.166E-04 -.224E-04
   -.565E-03 -.520E-03 -.534E-03   0.524E-03 0.524E-03 0.524E-03   0.155E-03 0.151E-03 0.155E-03   0.210E-04 -.212E-04 -.109E-04
   -.174E-04 0.214E-04 0.731E-05   0.580E-08 0.580E-08 0.580E-08   -.116E-03 -.119E-03 -.117E-03   0.211E-04 -.144E-04 -.202E-05
 -----------------------------------------------------------------------------------------------
   0.136E-05 -.359E-05 0.645E-06   -.397E-12 -.143E-12 -.819E-12   -.313E-05 0.591E-05 0.868E-06   0.773E-06 -.423E-07 -.749E-06
 
 
 POSITION                                       TOTAL-FORCE (eV/Angst)
 -----------------------------------------------------------------------------------
      0.00000      0.00000      0.00000         0.000112      0.000112      0.000112
      1.35751      1.35751      1.35751        -0.000135     -0.000134     -0.000134
      2.71501      0.00000      2.71501        -0.000035      0.000052     -0.000035
      4.07250      1.35751      4.07250         0.000028     -0.000082      0.000028
      5.42999      0.00000      5.42999         0.000128      0.000103      0.000127
      6.78751      1.35751      6.78751        -0.000119     -0.000142     -0.000118
      8.14500      0.00000      8.14500         0.000112      0.000112      0.000111
      9.50251      1.35751      9.50251        -0.000135     -0.000134     -0.000134
     10.86001      0.00000     10.86001        -0.000034      0.000052     -0.000035
     12.21750      1.35751     12.21750         0.000028     -0.000082      0.000028
     13.57499      0.00000     13.57499         0.000128      0.000103      0.000127
     14.93251      1.35751     14.93251        -0.000118     -0.000143     -0.000118
      0.00000      2.71501      2.71501         0.000051     -0.000034     -0.000035
      1.35751      4.07250      4.07250        -0.000082      0.000028      0.000028
      2.71501      2.71501      5.43001        -0.000096     -0.000095     -0.000181
      4.07250      4.07250      6.78749         0.000080      0.000079      0.000190
      5.42999      2.71501      8.14500         0.000067     -0.000043     -0.000019
      6.78751      4.07250      9.50249        -0.000068      0.000019      0.000043
      8.14500      2.71501     10.86001         0.000051     -0.000034     -0.000035
      9.50251      4.07250     12.21750        -0.000082      0.000027      0.000028
     10.86001      2.71501     13.57501        -0.000095     -0.000095     -0.000181
     12.21750      4.07250     14.93249         0.000080      0.000080      0.000190
     13.57499      2.71501     16.29000         0.000066     -0.000043     -0.000019
     14.93251      4.07250     17.64749        -0.000067      0.000019      0.000043
      0.00000      5.42999      5.42999         0.000103      0.000127      0.000127
      1.35751      6.78751      6.78751        -0.000143     -0.000119     -0.000118
      2.71501      5.42999      8.14500        -0.000043      0.000067     -0.000020
      4.07250      6.78751      9.50249         0.000019     -0.000067      0.000044
      5.42999      5.42999     10.85999         0.000119      0.000118      0.000143
      6.78751      6.78751     12.21750        -0.000128     -0.000127     -0.000103
      8.14500      5.42999     13.57499         0.000103      0.000128      0.000127
      9.50251      6.78751     14.93251        -0.000143     -0.000118     -0.000118
     10.86001      5.42999     16.29000        -0.000043      0.000066     -0.000019
     12.21750      6.78751     17.64749         0.000019     -0.000067      0.000044
     13.57499      5.42999     19.00499         0.000119      0.000119      0.000143
     14.93251      6.78751     20.36250        -0.000128     -0.000127     -0.000103
      0.00000      8.14500      8.14500         0.000112      0.000112      0.000112
      1.35751      9.50251      9.50251        -0.000135     -0.000135     -0.000134
      2.71501      8.14500     10.86001        -0.000035      0.000052     -0.000035
      4.07250      9.50251     12.21750         0.000028     -0.000083      0.000028
      5.42999      8.14500     13.57499         0.000127      0.000103      0.000127
      6.78751      9.50251     14.93251        -0.000119     -0.000144     -0.000118
      8.14500      8.14500     16.29000         0.000112      0.000112      0.000112
      9.50251      9.50251     17.64751        -0.000135     -0.000134     -0.000133
     10.86001      8.14500     19.00501        -0.000034      0.000051     -0.000035
     12.21750      9.50251     20.36250         0.000027     -0.000083      0.000028
     13.57499      8.14500     21.71999         0.000128      0.000103      0.000127
     14.93251      9.50251     23.07751        -0.000119     -0.000143     -0.000118
      0.00000     10.86001     10.86001         0.000051     -0.000034     -0.000035
      1.35751     12.21750     12.21750        -0.000083      0.000028      0.000028
      2.71501     10.86001     13.57501        -0.000095     -0.000095     -0.000182
      4.07250     12.21750     14.93249         0.000080      0.000079      0.000190
      5.42999     10.86001     16.29000         0.000067     -0.000043     -0.000019
      6.78751     12.21750     17.64749        -0.000067      0.000018      0.000044
      8.14500     10.86001     19.00501         0.000052     -0.000034     -0.000034
      9.50251     12.21750     20.36250        -0.000083      0.000027      0.000028
     10.86001     10.86001     21.72001        -0.000095     -0.000095     -0.000181
     12.21750     12.21750     23.07749         0.000080      0.000079      0.000190
     13.57499     10.86001     24.43500         0.000067     -0.000043     -0.000019
     14.93251     12.21750     25.79249        -0.000067      0.000018      0.000043
      0.00000     13.57499     13.57499         0.000103      0.000127      0.000128
      1.35751     14.93251     14.93251        -0.000143     -0.000118     -0.000119
      2.71501     13.57499     16.29000        -0.000044      0.000067     -0.000019
      4.07250     14.93251     17.64749         0.000019     -0.000067      0.000044
      5.42999     13.57499     19.00499         0.000119      0.000119      0.000143
      6.78751     14.93251     20.36250        -0.000127     -0.000127     -0.000103
      8.14500     13.57499     21.71999         0.000103      0.000127      0.000127
      9.50251     14.93251     23.07751        -0.000143     -0.000118     -0.000118
     10.86001     13.57499     24.43500        -0.000044      0.000067     -0.000020
     12.21750     14.93251     25.79249         0.000019     -0.000067      0.000043
     13.57499     13.57499     27.14999         0.000119      0.000119      0.000143
     14.93251     14.93251     28.50750        -0.000127     -0.000127     -0.000103
      2.71501      2.71501      0.00000        -0.000035     -0.000035      0.000051
      4.07250      4.07250      1.35751         0.000028      0.000028     -0.000082
      5.43001      2.71501      2.71501        -0.000181     -0.000095     -0.000095
      6.78749      4.07250      4.07250         0.000190      0.000080      0.000080
      8.14500      2.71501      5.42999        -0.000019     -0.000044      0.000067
      9.50249      4.07250      6.78751         0.000043      0.000019     -0.000067
     10.86001      2.71501      8.14500        -0.000034     -0.000035      0.000051
     12.21750      4.07250      9.50251         0.000028      0.000028     -0.000082
     13.57501      2.71501     10.86001        -0.000181     -0.000096     -0.000096
     14.93249      4.07250     12.21750         0.000190      0.000080      0.000080
     16.29000      2.71501     13.57499        -0.000019     -0.000044      0.000067
     17.64749      4.07250     14.93251         0.000043      0.000019     -0.000067
      2.71501      5.43001      2.71501        -0.000096     -0.000181     -0.000095
      4.07250      6.78749      4.07250         0.000080      0.000189      0.000080
      5.43001      5.43001      5.43001        -0.000242     -0.000242     -0.000242
      6.78749      6.78749      6.78749         0.000242      0.000241      0.000241
      8.14500      5.43001      8.14500        -0.000080     -0.000190     -0.000079
      9.50249      6.78749      9.50249         0.000096      0.000181      0.000095
     10.86001      5.43001     10.86001        -0.000095     -0.000181     -0.000095
     12.21750      6.78749     12.21750         0.000081      0.000190      0.000080
     13.57501      5.43001     13.57501        -0.000242     -0.000242     -0.000241
     14.93249      6.78749     14.93249         0.000242      0.000242      0.000241
     16.29000      5.43001     16.29000        -0.000080     -0.000190     -0.000079
     17.64749      6.78749     17.64749         0.000096      0.000181      0.000095
      2.71501      8.14500      5.42999        -0.000043     -0.000019      0.000067
      4.07250      9.50249      6.78751         0.000019      0.000043     -0.000067
      5.43001      8.14500      8.14500        -0.000190     -0.000080     -0.000080
      6.78749      9.50249      9.50249         0.000181      0.000095      0.000095
      8.14500      8.14500     10.85999        -0.000028     -0.000029      0.000082
      9.50249      9.50249     12.21750         0.000035      0.000035     -0.000052
     10.86001      8.14500     13.57499        -0.000044     -0.000020      0.000067
     12.21750      9.50249     14.93251         0.000020      0.000043     -0.000067
     13.57501      8.14500     16.29000        -0.000190     -0.000080     -0.000079
     14.93249      9.50249     17.64749         0.000181      0.000095      0.000095
     16.29000      8.14500     19.00499        -0.000028     -0.000028      0.000082
     17.64749      9.50249     20.36250         0.000034      0.000035     -0.000051
      2.71501     10.86001      8.14500        -0.000035     -0.000035      0.000052
      4.07250     12.21750      9.50251         0.000028      0.000028     -0.000082
      5.43001     10.86001     10.86001        -0.000182     -0.000096     -0.000095
      6.78749     12.21750     12.21750         0.000190      0.000081      0.000079
      8.14500     10.86001     13.57499        -0.000020     -0.000044      0.000067
      9.50249     12.21750     14.93251         0.000043      0.000020     -0.000066
     10.86001     10.86001     16.29000        -0.000035     -0.000035      0.000051
     12.21750     12.21750     17.64751         0.000028      0.000029     -0.000082
     13.57501     10.86001     19.00501        -0.000181     -0.000096     -0.000095
     14.93249     12.21750     20.36250         0.000190      0.000080      0.000080
     16.29000     10.86001     21.71999        -0.000019     -0.000044      0.000067
     17.64749     12.21750     23.07751         0.000043      0.000019     -0.000067
      2.71501     13.57501     10.86001        -0.000096     -0.000181     -0.000095
      4.07250     14.93249     12.21750         0.000079      0.000190      0.000079
      5.43001     13.57501     13.57501        -0.000242     -0.000242     -0.000242
      6.78749     14.93249     14.93249         0.000242      0.000242      0.000242
      8.14500     13.57501     16.29000        -0.000081     -0.000190     -0.000079
      9.50249     14.93249     17.64749         0.000096      0.000181      0.000095
     10.86001     13.57501     19.00501        -0.000096     -0.000181     -0.000095
     12.21750     14.93249     20.36250         0.000080      0.000190      0.000079
     13.57501     13.57501     21.72001        -0.000242     -0.000241     -0.000241
     14.93249     14.93249     23.07749         0.000242      0.000242      0.000241
     16.29000     13.57501     24.43500        -0.000080     -0.000190     -0.000079
     17.64749     14.93249     25.79249         0.000095      0.000181      0.000095
      2.71501     16.29000     13.57499        -0.000043     -0.000019      0.000068
      4.07250     17.64749     14.93251         0.000019      0.000044     -0.000067
      5.43001     16.29000     16.29000        -0.000190     -0.000080     -0.000080
      6.78749     17.64749     17.64749         0.000182      0.000095      0.000095
      8.14500     16.29000     19.00499        -0.000028     -0.000028      0.000082
      9.50249     17.64749     20.36250         0.000035      0.000035     -0.000051
     10.86001     16.29000     21.71999        -0.000044     -0.000019      0.000067
     12.21750     17.64749     23.07751         0.000019      0.000043     -0.000067
     13.57501     16.29000     24.43500        -0.000189     -0.000079     -0.000080
     14.93249     17.64749     25.79249         0.000181      0.000095      0.000095
     16.29000     16.29000     27.14999        -0.000028     -0.000028      0.000082
     17.64749     17.64749     28.50750         0.000035      0.000035     -0.000051
      5.42999      5.42999      0.00000         0.000127      0.000127      0.000103
      6.78751      6.78751      1.35751        -0.000119     -0.000119     -0.000143
      8.14500      5.42999      2.71501        -0.000019      0.000067     -0.000043
      9.50249      6.78751      4.07250         0.000043     -0.000067      0.000019
     10.85999      5.42999      5.42999         0.000143      0.000119      0.000119
     12.21750      6.78751      6.78751        -0.000103     -0.000127     -0.000127
     13.57499      5.42999      8.14500         0.000127      0.000127      0.000103
     14.93251      6.78751      9.50251        -0.000118     -0.000118     -0.000143
     16.29000      5.42999     10.86001        -0.000019      0.000067     -0.000043
     17.64749      6.78751     12.21750         0.000043     -0.000067      0.000020
     19.00499      5.42999     13.57499         0.000143      0.000119      0.000118
     20.36250      6.78751     14.93251        -0.000103     -0.000127     -0.000127
      5.42999      8.14500      2.71501         0.000066     -0.000019     -0.000043
      6.78751      9.50249      4.07250        -0.000067      0.000043      0.000019
      8.14500      8.14500      5.43001        -0.000080     -0.000080     -0.000190
      9.50249      9.50249      6.78749         0.000095      0.000095      0.000181
     10.85999      8.14500      8.14500         0.000082     -0.000028     -0.000028
     12.21750      9.50249      9.50249        -0.000051      0.000034      0.000035
     13.57499      8.14500     10.86001         0.000066     -0.000019     -0.000044
     14.93251      9.50249     12.21750        -0.000067      0.000043      0.000019
     16.29000      8.14500     13.57501        -0.000080     -0.000080     -0.000190
     17.64749      9.50249     14.93249         0.000096      0.000095      0.000181
     19.00499      8.14500     16.29000         0.000082     -0.000028     -0.000028
     20.36250      9.50249     17.64749        -0.000051      0.000034      0.000034
      5.42999     10.85999      5.42999         0.000119      0.000143      0.000118
      6.78751     12.21750      6.78751        -0.000128     -0.000103     -0.000127
      8.14500     10.85999      8.14500        -0.000028      0.000082     -0.000028
      9.50249     12.21750      9.50249         0.000035     -0.000051      0.000035
     10.85999     10.85999     10.85999         0.000134      0.000134      0.000134
     12.21750     12.21750     12.21750        -0.000112     -0.000112     -0.000112
     13.57499     10.85999     13.57499         0.000118      0.000143      0.000118
     14.93251     12.21750     14.93251        -0.000127     -0.000103     -0.000127
     16.29000     10.85999     16.29000        -0.000028      0.000082     -0.000028
     17.64749     12.21750     17.64749         0.000035     -0.000051      0.000034
     19.00499     10.85999     19.00499         0.000134      0.000134      0.000134
     20.36250     12.21750     20.36250        -0.000112     -0.000112     -0.000112
      5.42999     13.57499      8.14500         0.000127      0.000128      0.000103
      6.78751     14.93251      9.50251        -0.000119     -0.000119     -0.000143
      8.14500     13.57499     10.86001        -0.000019      0.000067     -0.000044
      9.50249     14.93251     12.21750         0.000043     -0.000067      0.000019
     10.85999     13.57499     13.57499         0.000143      0.000119      0.000118
     12.21750     14.93251     14.93251        -0.000103     -0.000127     -0.000127
     13.57499     13.57499     16.29000         0.000128      0.000127      0.000103
     14.93251     14.93251     17.64751        -0.000119     -0.000118     -0.000143
     16.29000     13.57499     19.00501        -0.000019      0.000067     -0.000043
     17.64749     14.93251     20.36250         0.000043     -0.000067      0.000019
     19.00499     13.57499     21.71999         0.000143      0.000119      0.000119
     20.36250     14.93251     23.07751        -0.000103     -0.000127     -0.000127
      5.42999     16.29000     10.86001         0.000068     -0.000019     -0.000044
      6.78751     17.64749     12.21750        -0.000067      0.000044      0.000020
      8.14500     16.29000     13.57501        -0.000080     -0.000080     -0.000190
      9.50249     17.64749     14.93249         0.000095      0.000095      0.000181
     10.85999     16.29000     16.29000         0.000082     -0.000028     -0.000028
     12.21750     17.64749     17.64749        -0.000051      0.000035      0.000035
     13.57499     16.29000     19.00501         0.000067     -0.000019     -0.000043
     14.93251     17.64749     20.36250        -0.000066      0.000043      0.000019
     16.29000     16.29000     21.72001        -0.000080     -0.000079     -0.000190
     17.64749     17.64749     23.07749         0.000095      0.000095      0.000181
     19.00499     16.29000     24.43500         0.000082     -0.000028     -0.000028
     20.36250     17.64749     25.79249        -0.000052      0.000034      0.000035
      5.42999     19.00499     13.57499         0.000119      0.000143      0.000119
      6.78751     20.36250     14.93251        -0.000128     -0.000103     -0.000127
      8.14500     19.00499     16.29000        -0.000028      0.000083     -0.000028
      9.50249     20.36250     17.64749         0.000035     -0.000052      0.000035
     10.85999     19.00499     19.00499         0.000134      0.000134      0.000134
     12.21750     20.36250     20.36250        -0.000112     -0.000112     -0.000112
     13.57499     19.00499     21.71999         0.000119      0.000143      0.000119
     14.93251     20.36250     23.07751        -0.000127     -0.000103     -0.000127
     16.29000     19.00499     24.43500        -0.000028      0.000082     -0.000028
     17.64749     20.36250     25.79249         0.000035     -0.000052      0.000035
     19.00499     19.00499     27.14999         0.000134      0.000135      0.000134
     20.36250     20.36250     28.50750        -0.000112     -0.000112     -0.000111
      8.14500      8.14500      0.00000         0.000112      0.000112      0.000112
      9.50251      9.50251      1.35751        -0.000134     -0.000135     -0.000134
     10.86001      8.14500      2.71501        -0.000034      0.000052     -0.000034
     12.21750      9.50251      4.07250         0.000028     -0.000083      0.000028
     13.57499      8.14500      5.42999         0.000127      0.000103      0.000127
     14.93251      9.50251      6.78751        -0.000118     -0.000144     -0.000118
     16.29000      8.14500      8.14500         0.000112      0.000112      0.000112
     17.64751      9.50251      9.50251        -0.000134     -0.000134     -0.000134
     19.00501      8.14500     10.86001        -0.000035      0.000052     -0.000035
     20.36250      9.50251     12.21750         0.000028     -0.000083      0.000028
     21.71999      8.14500     13.57499         0.000127      0.000103      0.000127
     23.07751      9.50251     14.93251        -0.000119     -0.000143     -0.000118
      8.14500     10.86001      2.71501         0.000052     -0.000035     -0.000035
      9.50251     12.21750      4.07250        -0.000082      0.000028      0.000028
     10.86001     10.86001      5.43001        -0.000095     -0.000095     -0.000181
     12.21750     12.21750      6.78749         0.000080      0.000080      0.000190
     13.57499     10.86001      8.14500         0.000067     -0.000043     -0.000019
     14.93251     12.21750      9.50249        -0.000067      0.000019      0.000043
     16.29000     10.86001     10.86001         0.000052     -0.000035     -0.000035
     17.64751     12.21750     12.21750        -0.000082      0.000028      0.000028
     19.00501     10.86001     13.57501        -0.000096     -0.000095     -0.000181
     20.36250     12.21750     14.93249         0.000080      0.000079      0.000190
     21.71999     10.86001     16.29000         0.000066     -0.000043     -0.000019
     23.07751     12.21750     17.64749        -0.000067      0.000019      0.000044
      8.14500     13.57499      5.42999         0.000104      0.000127      0.000127
      9.50251     14.93251      6.78751        -0.000142     -0.000118     -0.000118
     10.86001     13.57499      8.14500        -0.000044      0.000066     -0.000020
     12.21750     14.93251      9.50249         0.000019     -0.000067      0.000043
     13.57499     13.57499     10.85999         0.000119      0.000119      0.000143
     14.93251     14.93251     12.21750        -0.000127     -0.000127     -0.000103
     16.29000     13.57499     13.57499         0.000103      0.000128      0.000127
     17.64751     14.93251     14.93251        -0.000143     -0.000118     -0.000119
     19.00501     13.57499     16.29000        -0.000043      0.000067     -0.000019
     20.36250     14.93251     17.64749         0.000019     -0.000067      0.000044
     21.71999     13.57499     19.00499         0.000118      0.000119      0.000143
     23.07751     14.93251     20.36250        -0.000128     -0.000127     -0.000103
      8.14500     16.29000      8.14500         0.000111      0.000112      0.000112
      9.50251     17.64751      9.50251        -0.000134     -0.000134     -0.000134
     10.86001     16.29000     10.86001        -0.000034      0.000051     -0.000035
     12.21750     17.64751     12.21750         0.000028     -0.000082      0.000028
     13.57499     16.29000     13.57499         0.000128      0.000103      0.000127
     14.93251     17.64751     14.93251        -0.000119     -0.000143     -0.000118
     16.29000     16.29000     16.29000         0.000112      0.000112      0.000112
     17.64751     17.64751     17.64751        -0.000134     -0.000134     -0.000134
     19.00501     16.29000     19.00501        -0.000035      0.000052     -0.000035
     20.36250     17.64751     20.36250         0.000028     -0.000082      0.000028
     21.71999     16.29000     21.71999         0.000127      0.000103      0.000127
     23.07751     17.64751     23.07751        -0.000118     -0.000143     -0.000119
      8.14500     19.00501     10.86001         0.000051     -0.000035     -0.000034
      9.50251     20.36250     12.21750        -0.000082      0.000028      0.000028
     10.86001     19.00501     13.57501        -0.000096     -0.000095     -0.000181
     12.21750     20.36250     14.93249         0.000080      0.000080      0.000190
     13.57499     19.00501     16.29000         0.000067     -0.000043     -0.000019
     14.93251     20.36250     17.64749        -0.000067      0.000019      0.000044
     16.29000     19.00501     19.00501         0.000051     -0.000035     -0.000034
     17.64751     20.36250     20.36250        -0.000083      0.000028      0.000028
     19.00501     19.00501     21.72001        -0.000096     -0.000095     -0.000182
     20.36250     20.36250     23.07749         0.000079      0.000080      0.000190
     21.71999     19.00501     24.43500         0.000067     -0.000044     -0.000019
     23.07751     20.36250     25.79249        -0.000067      0.000019      0.000044
      8.14500     21.71999     13.57499         0.000103      0.000127      0.000128
      9.50251     23.07751     14.93251        -0.000143     -0.000119     -0.000119
     10.86001     21.71999     16.29000        -0.000043      0.000067     -0.000019
     12.21750     23.07751     17.64749         0.000019     -0.000067      0.000044
     13.57499     21.71999     19.00499         0.000119      0.000119      0.000143
     14.93251     23.07751     20.36250        -0.000127     -0.000127     -0.000103
     16.29000     21.71999     21.71999         0.000103      0.000127      0.000127
     17.64751     23.07751     23.07751        -0.000144     -0.000118     -0.000119
     19.00501     21.71999     24.43500        -0.000044      0.000067     -0.000019
     20.36250     23.07751     25.79249         0.000019     -0.000067      0.000044
     21.71999     21.71999     27.14999         0.000118      0.000119      0.000143
     23.07751     23.07751     28.50750        -0.000127     -0.000127     -0.000103
     10.86001     10.86001      0.00000        -0.000034     -0.000035      0.000052
     12.21750     12.21750      1.35751         0.000028      0.000028     -0.000082
     13.57501     10.86001      2.71501        -0.000181     -0.000096     -0.000095
     14.93249     12.21750      4.07250         0.000190      0.000080      0.000080
     16.29000     10.86001      5.42999        -0.000020     -0.000043      0.000066
     17.64749     12.21750      6.78751         0.000044      0.000019     -0.000067
     19.00501     10.86001      8.14500        -0.000035     -0.000035      0.000052
     20.36250     12.21750      9.50251         0.000028      0.000028     -0.000083
     21.72001     10.86001     10.86001        -0.000182     -0.000096     -0.000095
     23.07749     12.21750     12.21750         0.000190      0.000080      0.000080
     24.43500     10.86001     13.57499        -0.000019     -0.000044      0.000067
     25.79249     12.21750     14.93251         0.000044      0.000019     -0.000067
     10.86001     13.57501      2.71501        -0.000095     -0.000181     -0.000095
     12.21750     14.93249      4.07250         0.000080      0.000191      0.000080
     13.57501     13.57501      5.43001        -0.000242     -0.000242     -0.000242
     14.93249     14.93249      6.78749         0.000241      0.000242      0.000242
     16.29000     13.57501      8.14500        -0.000080     -0.000190     -0.000079
     17.64749     14.93249      9.50249         0.000096      0.000181      0.000095
     19.00501     13.57501     10.86001        -0.000095     -0.000181     -0.000095
     20.36250     14.93249     12.21750         0.000080      0.000190      0.000079
     21.72001     13.57501     13.57501        -0.000243     -0.000242     -0.000242
     23.07749     14.93249     14.93249         0.000242      0.000242      0.000241
     24.43500     13.57501     16.29000        -0.000080     -0.000190     -0.000079
     25.79249     14.93249     17.64749         0.000096      0.000182      0.000095
     10.86001     16.29000      5.42999        -0.000044     -0.000020      0.000067
     12.21750     17.64749      6.78751         0.000019      0.000044     -0.000067
     13.57501     16.29000      8.14500        -0.000190     -0.000079     -0.000080
     14.93249     17.64749      9.50249         0.000181      0.000095      0.000095
     16.29000     16.29000     10.85999        -0.000028     -0.000028      0.000082
     17.64749     17.64749     12.21750         0.000035      0.000035     -0.000051
     19.00501     16.29000     13.57499        -0.000043     -0.000019      0.000067
     20.36250     17.64749     14.93251         0.000019      0.000044     -0.000067
     21.72001     16.29000     16.29000        -0.000191     -0.000079     -0.000079
     23.07749     17.64749     17.64749         0.000181      0.000095      0.000095
     24.43500     16.29000     19.00499        -0.000028     -0.000028      0.000083
     25.79249     17.64749     20.36250         0.000036      0.000035     -0.000051
     10.86001     19.00501      8.14500        -0.000034     -0.000035      0.000052
     12.21750     20.36250      9.50251         0.000028      0.000028     -0.000083
     13.57501     19.00501     10.86001        -0.000181     -0.000095     -0.000096
     14.93249     20.36250     12.21750         0.000190      0.000080      0.000080
     16.29000     19.00501     13.57499        -0.000019     -0.000044      0.000066
     17.64749     20.36250     14.93251         0.000044      0.000019     -0.000067
     19.00501     19.00501     16.29000        -0.000034     -0.000035      0.000052
     20.36250     20.36250     17.64751         0.000028      0.000028     -0.000083
     21.72001     19.00501     19.00501        -0.000182     -0.000095     -0.000095
     23.07749     20.36250     20.36250         0.000191      0.000080      0.000080
     24.43500     19.00501     21.71999        -0.000020     -0.000044      0.000067
     25.79249     20.36250     23.07751         0.000044      0.000019     -0.000067
     10.86001     21.72001     10.86001        -0.000095     -0.000182     -0.000095
     12.21750     23.07749     12.21750         0.000080      0.000190      0.000080
     13.57501     21.72001     13.57501        -0.000242     -0.000242     -0.000242
     14.93249     23.07749     14.93249         0.000242      0.000242      0.000242
     16.29000     21.72001     16.29000        -0.000080     -0.000190     -0.000080
     17.64749     23.07749     17.64749         0.000096      0.000181      0.000096
     19.00501     21.72001     19.00501        -0.000095     -0.000182     -0.000094
     20.36250     23.07749     20.36250         0.000079      0.000191      0.000079
     21.72001     21.72001     21.72001        -0.000242     -0.000242     -0.000242
     23.07749     23.07749     23.07749         0.000242      0.000242      0.000241
     24.43500     21.72001     24.43500        -0.000080     -0.000190     -0.000080
     25.79249     23.07749     25.79249         0.000096      0.000182      0.000095
     10.86001     24.43500     13.57499        -0.000043     -0.000019      0.000067
     12.21750     25.79249     14.93251         0.000019      0.000043     -0.000067
     13.57501     24.43500     16.29000        -0.000190     -0.000080     -0.000079
     14.93249     25.79249     17.64749         0.000181      0.000096      0.000095
     16.29000     24.43500     19.00499        -0.000029     -0.000028      0.000082
     17.64749     25.79249     20.36250         0.000035      0.000034     -0.000051
     19.00501     24.43500     21.71999        -0.000043     -0.000020      0.000067
     20.36250     25.79249     23.07751         0.000019      0.000044     -0.000067
     21.72001     24.43500     24.43500        -0.000190     -0.000080     -0.000080
     23.07749     25.79249     25.79249         0.000182      0.000095      0.000096
     24.43500     24.43500     27.14999        -0.000029     -0.000029      0.000082
     25.79249     25.79249     28.50750         0.000035      0.000035     -0.000052
     13.57499     13.57499      0.00000         0.000128      0.000127      0.000103
     14.93251     14.93251      1.35751        -0.000119     -0.000118     -0.000143
     16.29000     13.57499      2.71501        -0.000020      0.000067     -0.000043
     17.64749     14.93251      4.07250         0.000043     -0.000067      0.000019
     19.00499     13.57499      5.42999         0.000143      0.000119      0.000119
     20.36250     14.93251      6.78751        -0.000103     -0.000127     -0.000127
     21.71999     13.57499      8.14500         0.000127      0.000127      0.000103
     23.07751     14.93251      9.50251        -0.000119     -0.000118     -0.000143
     24.43500     13.57499     10.86001        -0.000019      0.000067     -0.000044
     25.79249     14.93251     12.21750         0.000043     -0.000067      0.000019
     27.14999     13.57499     13.57499         0.000144      0.000119      0.000119
     28.50750     14.93251     14.93251        -0.000103     -0.000127     -0.000127
     13.57499     16.29000      2.71501         0.000066     -0.000019     -0.000044
     14.93251     17.64749      4.07250        -0.000067      0.000044      0.000019
     16.29000     16.29000      5.43001        -0.000080     -0.000079     -0.000190
     17.64749     17.64749      6.78749         0.000096      0.000095      0.000181
     19.00499     16.29000      8.14500         0.000082     -0.000028     -0.000028
     20.36250     17.64749      9.50249        -0.000051      0.000035      0.000034
     21.71999     16.29000     10.86001         0.000066     -0.000019     -0.000043
     23.07751     17.64749     12.21750        -0.000067      0.000044      0.000019
     24.43500     16.29000     13.57501        -0.000080     -0.000079     -0.000190
     25.79249     17.64749     14.93249         0.000095      0.000095      0.000181
     27.14999     16.29000     16.29000         0.000083     -0.000027     -0.000028
     28.50750     17.64749     17.64749        -0.000051      0.000035      0.000035
     13.57499     19.00499      5.42999         0.000119      0.000143      0.000119
     14.93251     20.36250      6.78751        -0.000128     -0.000103     -0.000127
     16.29000     19.00499      8.14500        -0.000028      0.000082     -0.000028
     17.64749     20.36250      9.50249         0.000035     -0.000052      0.000035
     19.00499     19.00499     10.85999         0.000134      0.000134      0.000134
     20.36250     20.36250     12.21750        -0.000112     -0.000112     -0.000112
     21.71999     19.00499     13.57499         0.000118      0.000143      0.000119
     23.07751     20.36250     14.93251        -0.000128     -0.000104     -0.000127
     24.43500     19.00499     16.29000        -0.000028      0.000083     -0.000028
     25.79249     20.36250     17.64749         0.000035     -0.000051      0.000035
     27.14999     19.00499     19.00499         0.000134      0.000134      0.000134
     28.50750     20.36250     20.36250        -0.000112     -0.000112     -0.000112
     13.57499     21.71999      8.14500         0.000127      0.000127      0.000103
     14.93251     23.07751      9.50251        -0.000119     -0.000119     -0.000143
     16.29000     21.71999     10.86001        -0.000019      0.000067     -0.000044
     17.64749     23.07751     12.21750         0.000044     -0.000067      0.000019
     19.00499     21.71999     13.57499         0.000143      0.000119      0.000118
     20.36250     23.07751     14.93251        -0.000103     -0.000127     -0.000127
     21.71999     21.71999     16.29000         0.000128      0.000127      0.000103
     23.07751     23.07751     17.64751        -0.000119     -0.000118     -0.000142
     24.43500     21.71999     19.00501        -0.000019      0.000067     -0.000044
     25.79249     23.07751     20.36250         0.000043     -0.000067      0.000019
     27.14999     21.71999     21.71999         0.000143      0.000119      0.000118
     28.50750     23.07751     23.07751        -0.000104     -0.000127     -0.000127
     13.57499     24.43500     10.86001         0.000067     -0.000019     -0.000043
     14.93251     25.79249     12.21750        -0.000067      0.000043      0.000019
     16.29000     24.43500     13.57501        -0.000080     -0.000079     -0.000190
     17.64749     25.79249     14.93249         0.000095      0.000095      0.000182
     19.00499     24.43500     16.29000         0.000082     -0.000028     -0.000028
     20.36250     25.79249     17.64749        -0.000051      0.000034      0.000035
     21.71999     24.43500     19.00501         0.000067     -0.000020     -0.000043
     23.07751     25.79249     20.36250        -0.000067      0.000043      0.000018
     24.43500     24.43500     21.72001        -0.000080     -0.000079     -0.000190
     25.79249     25.79249     23.07749         0.000096      0.000095      0.000181
     27.14999     24.43500     24.43500         0.000082     -0.000028     -0.000028
     28.50750     25.79249     25.79249        -0.000051      0.000035      0.000034
     13.57499     27.14999     13.57499         0.000119      0.000143      0.000119
     14.93251     28.50750     14.93251        -0.000127     -0.000103     -0.000127
     16.29000     27.14999     16.29000        -0.000028      0.000082     -0.000028
     17.64749     28.50750     17.64749         0.000035     -0.000051      0.000035
     19.00499     27.14999     19.00499         0.000134      0.000134      0.000134
     20.36250     28.50750     20.36250        -0.000112     -0.000112     -0.000112
     21.71999     27.14999     21.71999         0.000119      0.000142      0.000119
     23.07751     28.50750     23.07751        -0.000127     -0.000103     -0.000127
     24.43500     27.14999     24.43500        -0.000028      0.000082     -0.000029
     25.79249     28.50750     25.79249         0.000035     -0.000052      0.000035
     27.14999     27.14999     27.14999         0.000135      0.000134      0.000134
     28.50750     28.50750     28.50750        -0.000112     -0.000112     -0.000112
 -----------------------------------------------------------------------------------
    total drift:                               -0.000001      0.000002      0.000001


--------------------------------------------------------------------------------------------------------



  FREE ENERGIE OF THE ION-ELECTRON SYSTEM (eV)
  ---------------------------------------------------
  free  energy   TOTEN  =     -2337.60765733 eV

  energy  without entropy=    -2337.60765733  energy(sigma->0) =    -2337.60765733
 


--------------------------------------------------------------------------------------------------------


    POTLOK:  cpu time      0.1117: real time      0.1151


--------------------------------------------------------------------------------------------------------


 writing wavefunctions
     LOOP+:  cpu time     48.4054: real time     49.1170
    4ORBIT:  cpu time      0.0000: real time      0.0000

 total amount of memory used by VASP MPI-rank0  1144761. kBytes
=======================================================================

   base                                    :      30000. kBytes
   nonlr-proj                              :      57210. kBytes
   fftplans                                :     123807. kBytes
   grid                                    :     236160. kBytes
   one-center                              :       1327. kBytes
   wavefun                                 :     696257. kBytes
 
  
  
 General timing and accounting informations for this job:
 ========================================================
  
                  Total CPU time used (sec):       83.935
                            User time (sec):       60.837
                          System time (sec):       23.098
                         Elapsed time (sec):       89.300
  
                   Maximum memory used (kb):     2831760.
                   Average memory used (kb):          N/A
  
                          Minor page faults:       317738
                          Major page faults:          187
                 Voluntary context switches:        40095
