       N       E                     dE             d eps       ncg     rms          rms(c)
DAV:   1     0.235454619988E+04    0.23545E+04   -0.32851E+05  1252   0.108E+03
DAV:   2    -0.109596732697E+04   -0.34505E+04   -0.32820E+04  1486   0.177E+02
DAV:   3    -0.136398711616E+04   -0.26802E+03   -0.26172E+03  1520   0.430E+01
DAV:   4    -0.137103801009E+04   -0.70509E+01   -0.69953E+01  1448   0.855E+00
DAV:   5    -0.137127658437E+04   -0.23857E+00   -0.23825E+00  1472   0.146E+00    0.551E+01
DAV:   6    -0.135484360549E+04    0.16433E+02   -0.95353E+00  1376   0.249E+00    0.339E+01
DAV:   7    -0.134744086108E+04    0.74027E+01   -0.20794E+01  1342   0.380E+00    0.210E+00
DAV:   8    -0.134753180623E+04   -0.90945E-01   -0.10811E+00  1328   0.981E-01    0.701E-01
DAV:   9    -0.134755974617E+04   -0.27940E-01   -0.44128E-02  1470   0.225E-01    0.600E-01
DAV:  10    -0.134756908923E+04   -0.93431E-02   -0.23786E-02  1320   0.154E-01    0.397E-01
DAV:  11    -0.134756946372E+04   -0.37448E-03   -0.12377E-03  1382   0.371E-02    0.392E-02
DAV:  12    -0.134756954091E+04   -0.77192E-04   -0.88090E-05  1416   0.100E-02    0.327E-02
DAV:  13    -0.134756951827E+04    0.22634E-04   -0.16223E-05  1310   0.355E-03    0.363E-03
DAV:  14    -0.134756951819E+04    0.87342E-07   -0.24864E-07   848   0.541E-04    0.254E-03
DAV:  15    -0.134756951848E+04   -0.28946E-06   -0.39722E-08   726   0.241E-04    0.861E-04
DAV:  16    -0.134756951820E+04    0.27147E-06   -0.11611E-08   728   0.115E-04    0.327E-04
DAV:  17    -0.134756951818E+04    0.22310E-07   -0.37856E-09   728   0.644E-05    0.143E-04
DAV:  18    -0.134756951815E+04    0.35579E-07   -0.14049E-09   728   0.354E-05    0.646E-05
DAV:  19    -0.134756951815E+04    0.15705E-08   -0.58433E-10   728   0.210E-05    0.725E-06
DAV:  20    -0.134756951814E+04    0.82409E-08   -0.25911E-10   728   0.121E-05
   1 F= -.13475695E+04 E0= -.13475695E+04  d E =-.882813E-13
