       N       E                     dE             d eps       ncg     rms          rms(c)
DAV:   1    -0.292167793071E+03   -0.29217E+03   -0.88195E-11   528   0.183E-05    0.491E-06
DAV:   2    -0.292167793071E+03   -0.87539E-11   -0.31834E-11   528   0.100E-05    0.543E-06
DAV:   3    -0.292167793071E+03   -0.76909E-10   -0.13563E-11   528   0.590E-06    0.213E-05
DAV:   4    -0.292167793071E+03    0.18014E-09   -0.87508E-12   528   0.346E-06    0.294E-06
DAV:   5    -0.292167793071E+03    0.35413E-10   -0.39035E-12   512   0.214E-06    0.585E-07
DAV:   6    -0.292167793071E+03   -0.24897E-10   -0.13219E-12   504   0.123E-06    0.777E-07
DAV:   7    -0.292167793071E+03    0.35129E-10    0.23724E-13   480   0.807E-07    0.910E-07
DAV:   8    -0.292167793071E+03    0.40927E-11   -0.43542E-13   480   0.500E-07    0.287E-07
DAV:   9    -0.292167793071E+03    0.26660E-10   -0.36729E-12   464   0.346E-07    0.102E-06
DAV:  10    -0.292167793071E+03    0.44110E-10   -0.24689E-13   448   0.201E-07    0.137E-06
DAV:  11    -0.292167793071E+03   -0.60709E-10    0.51487E-14   448   0.181E-07    0.553E-07
DAV:  12    -0.292167793071E+03   -0.73896E-11   -0.70034E-13   448   0.126E-07    0.132E-07
DAV:  13    -0.292167793071E+03    0.36437E-10   -0.15576E-12   448   0.759E-08    0.452E-08
DAV:  14    -0.292167793071E+03   -0.21771E-10   -0.21094E-12   448   0.426E-08    0.566E-08
DAV:  15    -0.292167793071E+03    0.21089E-10   -0.60951E-13   448   0.313E-08    0.158E-08
DAV:  16    -0.292167793071E+03   -0.22112E-10   -0.24015E-12   448   0.200E-08    0.318E-09
DAV:  17    -0.292167793071E+03    0.44508E-10   -0.94022E-13   448   0.153E-08    0.308E-09
DAV:  18    -0.292167793071E+03   -0.41382E-10   -0.62381E-13   448   0.104E-08    0.642E-10
DAV:  19    -0.292167793071E+03    0.81855E-11   -0.10997E-12   448   0.809E-09    0.259E-10
DAV:  20    -0.292167793071E+03    0.10857E-10   -0.78708E-13   448   0.582E-09
   1 F= -.29216779E+03 E0= -.29216779E+03  d E =-.388259E-12
