       N       E                     dE             d eps       ncg     rms          rms(c)
DAV:   1     0.234791976028E+04    0.23479E+04   -0.32839E+05  1256   0.107E+03
DAV:   2    -0.109543233145E+04   -0.34434E+04   -0.32726E+04  1484   0.176E+02
DAV:   3    -0.136396190548E+04   -0.26853E+03   -0.26227E+03  1528   0.430E+01
DAV:   4    -0.137105708830E+04   -0.70952E+01   -0.70425E+01  1464   0.854E+00
DAV:   5    -0.137127634095E+04   -0.21925E+00   -0.21896E+00  1472   0.142E+00    0.551E+01
DAV:   6    -0.135484384243E+04    0.16432E+02   -0.95138E+00  1368   0.248E+00    0.339E+01
DAV:   7    -0.134744075107E+04    0.74031E+01   -0.20762E+01  1384   0.379E+00    0.210E+00
DAV:   8    -0.134753171207E+04   -0.90961E-01   -0.10826E+00  1328   0.978E-01    0.702E-01
DAV:   9    -0.134755977204E+04   -0.28060E-01   -0.44155E-02  1472   0.225E-01    0.601E-01
DAV:  10    -0.134756908634E+04   -0.93143E-02   -0.23718E-02  1328   0.153E-01    0.400E-01
DAV:  11    -0.134756946472E+04   -0.37838E-03   -0.12404E-03  1376   0.370E-02    0.385E-02
DAV:  12    -0.134756954056E+04   -0.75845E-04   -0.86527E-05  1440   0.987E-03    0.332E-02
DAV:  13    -0.134756951834E+04    0.22226E-04   -0.16332E-05  1312   0.356E-03    0.356E-03
DAV:  14    -0.134756951832E+04    0.19955E-07   -0.24785E-07   776   0.540E-04    0.251E-03
DAV:  15    -0.134756951863E+04   -0.31403E-06   -0.39536E-08   736   0.240E-04    0.851E-04
DAV:  16    -0.134756951836E+04    0.27061E-06   -0.11626E-08   736   0.115E-04    0.324E-04
DAV:  17    -0.134756951834E+04    0.21237E-07   -0.38250E-09   736   0.640E-05    0.143E-04
DAV:  18    -0.134756951830E+04    0.35477E-07   -0.14453E-09   736   0.353E-05    0.634E-05
DAV:  19    -0.134756951830E+04    0.12060E-08   -0.60956E-10   736   0.211E-05    0.725E-06
DAV:  20    -0.134756951829E+04    0.83355E-08   -0.27914E-10   736   0.122E-05
   1 F= -.13475695E+04 E0= -.13475695E+04  d E =-.155308E-13
