       N       E                     dE             d eps       ncg     rms          rms(c)
DAV:   1     0.235454620121E+04    0.23545E+04   -0.32851E+05  1252   0.108E+03
DAV:   2    -0.109596732564E+04   -0.34505E+04   -0.32820E+04  1486   0.177E+02
DAV:   3    -0.136398711483E+04   -0.26802E+03   -0.26172E+03  1520   0.430E+01
DAV:   4    -0.137103800876E+04   -0.70509E+01   -0.69953E+01  1448   0.855E+00
DAV:   5    -0.137127658304E+04   -0.23857E+00   -0.23825E+00  1472   0.146E+00    0.551E+01
DAV:   6    -0.135484360416E+04    0.16433E+02   -0.95353E+00  1376   0.249E+00    0.339E+01
DAV:   7    -0.134744085976E+04    0.74027E+01   -0.20794E+01  1342   0.380E+00    0.210E+00
DAV:   8    -0.134753180490E+04   -0.90945E-01   -0.10811E+00  1328   0.981E-01    0.701E-01
DAV:   9    -0.134755974484E+04   -0.27940E-01   -0.44128E-02  1470   0.225E-01    0.600E-01
DAV:  10    -0.134756908791E+04   -0.93431E-02   -0.23786E-02  1320   0.154E-01    0.397E-01
DAV:  11    -0.134756946239E+04   -0.37448E-03   -0.12377E-03  1382   0.371E-02    0.392E-02
DAV:  12    -0.134756953958E+04   -0.77193E-04   -0.88090E-05  1416   0.100E-02    0.327E-02
DAV:  13    -0.134756951695E+04    0.22635E-04   -0.16223E-05  1310   0.355E-03    0.363E-03
DAV:  14    -0.134756951686E+04    0.87229E-07   -0.24865E-07   848   0.541E-04    0.254E-03
DAV:  15    -0.134756951715E+04   -0.28949E-06   -0.39729E-08   726   0.241E-04    0.861E-04
DAV:  16    -0.134756951688E+04    0.27111E-06   -0.11627E-08   728   0.115E-04    0.327E-04
DAV:  17    -0.134756951685E+04    0.23177E-07   -0.37899E-09   728   0.644E-05    0.143E-04
DAV:  18    -0.134756951682E+04    0.35614E-07   -0.14194E-09   728   0.354E-05    0.646E-05
DAV:  19    -0.134756951682E+04    0.75352E-09   -0.58666E-10   728   0.210E-05    0.725E-06
DAV:  20    -0.134756951681E+04    0.84879E-08   -0.27542E-10   728   0.121E-05
   1 F= -.13475695E+04 E0= -.13475695E+04  d E =-.882813E-13
