       N       E                     dE             d eps       ncg     rms          rms(c)
DAV:   1     0.404646238773E+04    0.40465E+04   -0.56702E+05  2162   0.108E+03
DAV:   2    -0.190229019513E+04   -0.59488E+04   -0.56577E+04  2555   0.176E+02
DAV:   3    -0.236415587324E+04   -0.46187E+03   -0.45285E+03  2628   0.432E+01
DAV:   4    -0.237692357979E+04   -0.12768E+02   -0.12672E+02  2532   0.870E+00
DAV:   5    -0.237740948115E+04   -0.48590E+00   -0.48495E+00  2660   0.153E+00    0.720E+01
DAV:   6    -0.234983764181E+04    0.27572E+02   -0.15839E+01  2436   0.246E+00    0.442E+01
DAV:   7    -0.233740652656E+04    0.12431E+02   -0.34789E+01  2388   0.375E+00    0.274E+00
DAV:   8    -0.233754820409E+04   -0.14168E+00   -0.19312E+00  2388   0.100E+00    0.924E-01
DAV:   9    -0.233759054337E+04   -0.42339E-01   -0.73146E-02  2604   0.219E-01    0.798E-01
DAV:  10    -0.233760661929E+04   -0.16076E-01   -0.43441E-02  2348   0.160E-01    0.658E-01
DAV:  11    -0.233760756103E+04   -0.94174E-03   -0.26463E-03  2468   0.411E-02    0.378E-02
DAV:  12    -0.233760766350E+04   -0.10247E-03   -0.11509E-04  2588   0.836E-03    0.467E-02
DAV:  13    -0.233760764338E+04    0.20125E-04   -0.31838E-05  2460   0.421E-03    0.622E-03
DAV:  14    -0.233760764546E+04   -0.20850E-05   -0.35806E-07  1620   0.513E-04    0.549E-03
DAV:  15    -0.233760764464E+04    0.82670E-06   -0.16398E-07  1372   0.350E-04    0.123E-03
DAV:  16    -0.233760764398E+04    0.65351E-06   -0.39989E-08  1372   0.156E-04    0.680E-04
DAV:  17    -0.233760764401E+04   -0.25731E-07   -0.72830E-09  1372   0.738E-05    0.749E-04
DAV:  18    -0.233760764402E+04   -0.73146E-08   -0.19123E-09  1372   0.343E-05    0.749E-04
DAV:  19    -0.233760764400E+04    0.15690E-07   -0.29497E-09  1372   0.664E-05    0.275E-04
DAV:  20    -0.233760764403E+04   -0.26758E-07   -0.27464E-09  1348   0.369E-05
   1 F= -.23376076E+04 E0= -.23376076E+04  d E =-.138624E-14
