       N       E                     dE             d eps       ncg     rms          rms(c)
DAV:   1    -0.693902857162E+03   -0.69390E+03   -0.14055E-10  1068   0.985E-06    0.439E-06
DAV:   2    -0.693902857162E+03    0.25784E-09   -0.71970E-11  1068   0.536E-06    0.588E-06
DAV:   3    -0.693902857163E+03   -0.43235E-09   -0.38235E-11  1044   0.326E-06    0.135E-05
DAV:   4    -0.693902857162E+03    0.61345E-09   -0.20847E-11  1044   0.203E-06    0.393E-06
DAV:   5    -0.693902857162E+03    0.35891E-09   -0.61896E-12  1044   0.134E-06    0.124E-06
DAV:   6    -0.693902857162E+03   -0.20350E-10   -0.50566E-12  1044   0.860E-07    0.111E-06
DAV:   7    -0.693902857162E+03   -0.45588E-10   -0.20617E-12  1044   0.593E-07    0.604E-07
DAV:   8    -0.693902857162E+03    0.95383E-10   -0.11137E-14  1043   0.401E-07    0.281E-07
DAV:   9    -0.693902857162E+03   -0.71623E-11   -0.23731E-12  1041   0.284E-07    0.421E-08
DAV:  10    -0.693902857162E+03    0.15575E-10   -0.26453E-12  1041   0.188E-07    0.735E-08
DAV:  11    -0.693902857162E+03    0.20464E-11   -0.29035E-13  1041   0.137E-07    0.870E-08
DAV:  12    -0.693902857162E+03    0.31491E-10   -0.25209E-12  1041   0.947E-08    0.279E-08
DAV:  13    -0.693902857162E+03   -0.52182E-10    0.30088E-12  1041   0.718E-08    0.389E-08
DAV:  14    -0.693902857162E+03    0.83332E-10   -0.11184E-12  1016   0.486E-08    0.469E-08
DAV:  15    -0.693902857162E+03   -0.26489E-10    0.29827E-12  1014   0.368E-08    0.409E-08
DAV:  16    -0.693902857162E+03   -0.13415E-10   -0.33673E-12  1014   0.254E-08    0.432E-08
DAV:  17    -0.693902857162E+03    0.12733E-10    0.87218E-13  1014   0.199E-08    0.286E-08
DAV:  18    -0.693902857162E+03   -0.84469E-10    0.58943E-13  1014   0.142E-08    0.222E-08
DAV:  19    -0.693902857162E+03    0.10425E-09   -0.24209E-12  1014   0.118E-08    0.162E-08
DAV:  20    -0.693902857162E+03   -0.11596E-10   -0.16340E-12  1006   0.887E-09
   1 F= -.69390286E+03 E0= -.69390286E+03  d E =-.117884E-11
