 vasp.6.5.1 10Mar25 (build Apr  9 2026 21:39:28) complex                         
 executed on              LinuxNV date 2026.04.16  13:24:03
 running    8 mpi-ranks, with    1 threads/rank, on    1 nodes
 distrk:  each k-point on    1 cores,    8 groups
 distr:  one band on NCORE=   1 cores,    1 groups
 Offloading initialized ...    8 GPUs detected


--------------------------------------------------------------------------------------------------------


 INCAR:
   SYSTEM = Si_scaling
   ENCUT = 400
   EDIFF = 1E-6
   ISMEAR = 0
   SIGMA = 0.05
   IBRION = -1
   NSW = 0
   NELM = 20
   NELMIN = 20
   LREAL = Auto
   KPAR = 8

 POTCAR:    PAW_PBE Si 05Jan2001                  
 POTCAR:    PAW_PBE Si 05Jan2001                  
   SHA256 =  79d9987ad8750f624c4d6acb2a16d13abf6a777132adc04dc6c8399be72b42bb Si/POTCAR             
   COPYR  = (c) Copyright 05Jan2001 Georg Kresse                                                    
   COPYR  = This file is part of the software VASP. Any use, copying, and all other rights are regul
   COPYR  = If you do not have a valid VASP license, you may not use, copy or distribute this file. 
   VRHFIN =Si: s2p2                                                                                 
   LEXCH  = PE                                                                                      
   EATOM  =   103.0669 eV,    7.5752 Ry                                                             
                                                                                                    
   TITEL  = PAW_PBE Si 05Jan2001                                                                    
   LULTRA =        F    use ultrasoft PP ?                                                          
   IUNSCR =        1    unscreen: 0-lin 1-nonlin 2-no                                               
   RPACOR =    1.500    partial core radius                                                         
   POMASS =   28.085; ZVAL   =    4.000    mass and valenz                                          
   RCORE  =    1.900    outmost cutoff radius                                                       
   RWIGS  =    2.480; RWIGS  =    1.312    wigner-seitz radius (au A)                               
   ENMAX  =  245.345; ENMIN  =  184.009 eV                                                          
   ICORE  =        2    local potential                                                             
   LCOR   =        T    correct aug charges                                                         
   LPAW   =        T    paw PP                                                                      
   EAUG   =  322.069                                                                                
   DEXC   =    0.000                                                                                
   RMAX   =    1.950    core radius for proj-oper                                                   
   RAUG   =    1.300    factor for augmentation sphere                                              
   RDEP   =    1.993    radius for radial grids                                                     
   RDEPT  =    1.837    core radius for aug-charge                                                  
                                                                                                    
   Atomic configuration                                                                             
    6 entries                                                                                       
     n  l   j            E        occ.                                                              
     1  0  0.50     -1785.8828   2.0000                                                             
     2  0  0.50      -139.4969   2.0000                                                             
     2  1  1.50       -95.5546   6.0000                                                             
     3  0  0.50       -10.8127   2.0000                                                             
     3  1  0.50        -4.0811   2.0000                                                             
     3  2  1.50        -4.0817   0.0000                                                             
   Description                                                                                      
     l       E           TYP  RCUT    TYP  RCUT                                                     
     0    -10.8127223     23  1.900                                                                 
     0     -7.6451159     23  1.900                                                                 
     1     -4.0811372     23  1.900                                                                 
     1      2.4879257     23  1.900                                                                 
     2     -4.0817478      7  1.900                                                                 
  local pseudopotential read in
  partial core-charges read in
  partial kinetic energy density read in
  atomic valenz-charges read in
  non local Contribution for L=            0  read in
    real space projection operators read in
  non local Contribution for L=            0  read in
    real space projection operators read in
  non local Contribution for L=            1  read in
    real space projection operators read in
  non local Contribution for L=            1  read in
    real space projection operators read in
    PAW grid and wavefunctions read in
 
   number of l-projection  operators is LMAX  =            4
   number of lm-projection operators is LMMAX =            8
 
 Optimization of the real space projectors (new method)

 maximal supplied QI-value         = 19.84
 optimisation between [QCUT,QGAM] = [ 10.12, 20.44] = [ 28.68,116.96] Ry 
 Optimized for a Real-space Cutoff    1.23 Angstroem

   l    n(q)    QCUT    max X(q) W(low)/X(q) W(high)/X(q)  e(spline) 
   0      7    10.119   159.560    0.56E-04    0.22E-03    0.45E-07
   0      7    10.119   115.863    0.56E-04    0.21E-03    0.45E-07
   1      7    10.119    88.339    0.34E-03    0.49E-03    0.11E-06
   1      7    10.119    48.592    0.33E-03    0.48E-03    0.11E-06
  PAW_PBE Si 05Jan2001                  :
 energy of atom  1       EATOM= -103.0669
 kinetic energy error for atom=    0.0012 (will be added to EATOM!!)
 
 
 POSCAR: Si 4x4x4 primitive supercell (128 atoms)
  positions in direct lattice
  velocities in cartesian coordinates
  No initial velocities read in


 exchange-correlation table for PE
   RHO(1)=    0.500       N(1)  =     2000
   RHO(2)=  100.500       N(2)  =     4000
 


--------------------------------------------------------------------------------------------------------


 ion  position               nearest neighbor table
   1  0.000  0.000  0.000-   2 2.35   8 2.35  26 2.35  98 2.35
   2  0.063  0.063  0.063-   1 2.35   3 2.35   9 2.35  33 2.35
   3  0.000  0.000  0.250-   2 2.35   4 2.35  28 2.35 100 2.35
   4  0.063  0.063  0.313-   3 2.35   5 2.35  11 2.35  35 2.35
   5  0.000  0.000  0.500-   4 2.35   6 2.35  30 2.35 102 2.35
   6  0.063  0.063  0.563-   5 2.35   7 2.35  13 2.35  37 2.35
   7  0.000  0.000  0.750-   6 2.35   8 2.35  32 2.35 104 2.35
   8  0.063  0.063  0.813-   1 2.35   7 2.35  15 2.35  39 2.35
   9  0.000  0.250  0.000-   2 2.35  10 2.35  16 2.35 106 2.35
  10  0.063  0.313  0.063-   9 2.35  11 2.35  17 2.35  41 2.35
  11  0.000  0.250  0.250-   4 2.35  10 2.35  12 2.35 108 2.35
  12  0.063  0.313  0.313-  11 2.35  13 2.35  19 2.35  43 2.35
  13  0.000  0.250  0.500-   6 2.35  12 2.35  14 2.35 110 2.35
  14  0.063  0.313  0.563-  13 2.35  15 2.35  21 2.35  45 2.35
  15  0.000  0.250  0.750-   8 2.35  14 2.35  16 2.35 112 2.35
  16  0.063  0.313  0.813-   9 2.35  15 2.35  23 2.35  47 2.35
  17  0.000  0.500  0.000-  10 2.35  18 2.35  24 2.35 114 2.35
  18  0.063  0.563  0.063-  17 2.35  19 2.35  25 2.35  49 2.35
  19  0.000  0.500  0.250-  12 2.35  18 2.35  20 2.35 116 2.35
  20  0.063  0.563  0.313-  19 2.35  21 2.35  27 2.35  51 2.35
  21  0.000  0.500  0.500-  14 2.35  20 2.35  22 2.35 118 2.35
  22  0.063  0.563  0.563-  21 2.35  23 2.35  29 2.35  53 2.35
  23  0.000  0.500  0.750-  16 2.35  22 2.35  24 2.35 120 2.35
  24  0.063  0.563  0.813-  17 2.35  23 2.35  31 2.35  55 2.35
  25  0.000  0.750  0.000-  18 2.35  26 2.35  32 2.35 122 2.35
  26  0.063  0.813  0.063-   1 2.35  25 2.35  27 2.35  57 2.35
  27  0.000  0.750  0.250-  20 2.35  26 2.35  28 2.35 124 2.35
  28  0.063  0.813  0.313-   3 2.35  27 2.35  29 2.35  59 2.35
  29  0.000  0.750  0.500-  22 2.35  28 2.35  30 2.35 126 2.35
  30  0.063  0.813  0.563-   5 2.35  29 2.35  31 2.35  61 2.35
  31  0.000  0.750  0.750-  24 2.35  30 2.35  32 2.35 128 2.35
  32  0.063  0.813  0.813-   7 2.35  25 2.35  31 2.35  63 2.35
  33  0.250  0.000  0.000-   2 2.35  34 2.35  40 2.35  58 2.35
  34  0.313  0.063  0.063-  33 2.35  35 2.35  41 2.35  65 2.35
  35  0.250  0.000  0.250-   4 2.35  34 2.35  36 2.35  60 2.35
  36  0.313  0.063  0.313-  35 2.35  37 2.35  43 2.35  67 2.35
  37  0.250  0.000  0.500-   6 2.35  36 2.35  38 2.35  62 2.35
  38  0.313  0.063  0.563-  37 2.35  39 2.35  45 2.35  69 2.35
  39  0.250  0.000  0.750-   8 2.35  38 2.35  40 2.35  64 2.35
  40  0.313  0.063  0.813-  33 2.35  39 2.35  47 2.35  71 2.35
  41  0.250  0.250  0.000-  10 2.35  34 2.35  42 2.35  48 2.35
  42  0.313  0.313  0.063-  41 2.35  43 2.35  49 2.35  73 2.35
  43  0.250  0.250  0.250-  12 2.35  36 2.35  42 2.35  44 2.35
  44  0.313  0.313  0.313-  43 2.35  45 2.35  51 2.35  75 2.35
  45  0.250  0.250  0.500-  14 2.35  38 2.35  44 2.35  46 2.35
  46  0.313  0.313  0.563-  45 2.35  47 2.35  53 2.35  77 2.35
  47  0.250  0.250  0.750-  16 2.35  40 2.35  46 2.35  48 2.35
  48  0.313  0.313  0.813-  41 2.35  47 2.35  55 2.35  79 2.35
  49  0.250  0.500  0.000-  18 2.35  42 2.35  50 2.35  56 2.35
  50  0.313  0.563  0.063-  49 2.35  51 2.35  57 2.35  81 2.35
  51  0.250  0.500  0.250-  20 2.35  44 2.35  50 2.35  52 2.35
  52  0.313  0.563  0.313-  51 2.35  53 2.35  59 2.35  83 2.35
  53  0.250  0.500  0.500-  22 2.35  46 2.35  52 2.35  54 2.35
  54  0.313  0.563  0.563-  53 2.35  55 2.35  61 2.35  85 2.35
  55  0.250  0.500  0.750-  24 2.35  48 2.35  54 2.35  56 2.35
  56  0.313  0.563  0.813-  49 2.35  55 2.35  63 2.35  87 2.35
  57  0.250  0.750  0.000-  26 2.35  50 2.35  58 2.35  64 2.35
  58  0.313  0.813  0.063-  33 2.35  57 2.35  59 2.35  89 2.35
  59  0.250  0.750  0.250-  28 2.35  52 2.35  58 2.35  60 2.35
  60  0.313  0.813  0.313-  35 2.35  59 2.35  61 2.35  91 2.35
  61  0.250  0.750  0.500-  30 2.35  54 2.35  60 2.35  62 2.35
  62  0.313  0.813  0.563-  37 2.35  61 2.35  63 2.35  93 2.35
  63  0.250  0.750  0.750-  32 2.35  56 2.35  62 2.35  64 2.35
  64  0.313  0.813  0.813-  39 2.35  57 2.35  63 2.35  95 2.35
  65  0.500  0.000  0.000-  34 2.35  66 2.35  72 2.35  90 2.35
  66  0.563  0.063  0.063-  65 2.35  67 2.35  73 2.35  97 2.35
  67  0.500  0.000  0.250-  36 2.35  66 2.35  68 2.35  92 2.35
  68  0.563  0.063  0.313-  67 2.35  69 2.35  75 2.35  99 2.35
  69  0.500  0.000  0.500-  38 2.35  68 2.35  70 2.35  94 2.35
  70  0.563  0.063  0.563-  69 2.35  71 2.35  77 2.35 101 2.35
  71  0.500  0.000  0.750-  40 2.35  70 2.35  72 2.35  96 2.35
  72  0.563  0.063  0.813-  65 2.35  71 2.35  79 2.35 103 2.35
  73  0.500  0.250  0.000-  42 2.35  66 2.35  74 2.35  80 2.35
  74  0.563  0.313  0.063-  73 2.35  75 2.35  81 2.35 105 2.35
  75  0.500  0.250  0.250-  44 2.35  68 2.35  74 2.35  76 2.35
  76  0.563  0.313  0.313-  75 2.35  77 2.35  83 2.35 107 2.35
  77  0.500  0.250  0.500-  46 2.35  70 2.35  76 2.35  78 2.35
  78  0.563  0.313  0.563-  77 2.35  79 2.35  85 2.35 109 2.35
  79  0.500  0.250  0.750-  48 2.35  72 2.35  78 2.35  80 2.35
  80  0.563  0.313  0.813-  73 2.35  79 2.35  87 2.35 111 2.35
  81  0.500  0.500  0.000-  50 2.35  74 2.35  82 2.35  88 2.35
  82  0.563  0.563  0.063-  81 2.35  83 2.35  89 2.35 113 2.35
  83  0.500  0.500  0.250-  52 2.35  76 2.35  82 2.35  84 2.35
  84  0.563  0.563  0.313-  83 2.35  85 2.35  91 2.35 115 2.35
  85  0.500  0.500  0.500-  54 2.35  78 2.35  84 2.35  86 2.35
  86  0.563  0.563  0.563-  85 2.35  87 2.35  93 2.35 117 2.35
  87  0.500  0.500  0.750-  56 2.35  80 2.35  86 2.35  88 2.35
  88  0.563  0.563  0.813-  81 2.35  87 2.35  95 2.35 119 2.35
  89  0.500  0.750  0.000-  58 2.35  82 2.35  90 2.35  96 2.35
  90  0.563  0.813  0.063-  65 2.35  89 2.35  91 2.35 121 2.35
  91  0.500  0.750  0.250-  60 2.35  84 2.35  90 2.35  92 2.35
  92  0.563  0.813  0.313-  67 2.35  91 2.35  93 2.35 123 2.35
  93  0.500  0.750  0.500-  62 2.35  86 2.35  92 2.35  94 2.35
  94  0.563  0.813  0.563-  69 2.35  93 2.35  95 2.35 125 2.35
  95  0.500  0.750  0.750-  64 2.35  88 2.35  94 2.35  96 2.35
  96  0.563  0.813  0.813-  71 2.35  89 2.35  95 2.35 127 2.35
  97  0.750  0.000  0.000-  66 2.35  98 2.35 104 2.35 122 2.35
  98  0.813  0.063  0.063-   1 2.35  97 2.35  99 2.35 105 2.35
  99  0.750  0.000  0.250-  68 2.35  98 2.35 100 2.35 124 2.35
 100  0.813  0.063  0.313-   3 2.35  99 2.35 101 2.35 107 2.35
 101  0.750  0.000  0.500-  70 2.35 100 2.35 102 2.35 126 2.35
 102  0.813  0.063  0.563-   5 2.35 101 2.35 103 2.35 109 2.35
 103  0.750  0.000  0.750-  72 2.35 102 2.35 104 2.35 128 2.35
 104  0.813  0.063  0.813-   7 2.35  97 2.35 103 2.35 111 2.35
 105  0.750  0.250  0.000-  74 2.35  98 2.35 106 2.35 112 2.35
 106  0.813  0.313  0.063-   9 2.35 105 2.35 107 2.35 113 2.35
 107  0.750  0.250  0.250-  76 2.35 100 2.35 106 2.35 108 2.35
 108  0.813  0.313  0.313-  11 2.35 107 2.35 109 2.35 115 2.35
 109  0.750  0.250  0.500-  78 2.35 102 2.35 108 2.35 110 2.35
 110  0.813  0.313  0.563-  13 2.35 109 2.35 111 2.35 117 2.35
 111  0.750  0.250  0.750-  80 2.35 104 2.35 110 2.35 112 2.35
 112  0.813  0.313  0.813-  15 2.35 105 2.35 111 2.35 119 2.35
 113  0.750  0.500  0.000-  82 2.35 106 2.35 114 2.35 120 2.35
 114  0.813  0.563  0.063-  17 2.35 113 2.35 115 2.35 121 2.35
 115  0.750  0.500  0.250-  84 2.35 108 2.35 114 2.35 116 2.35
 116  0.813  0.563  0.313-  19 2.35 115 2.35 117 2.35 123 2.35
 117  0.750  0.500  0.500-  86 2.35 110 2.35 116 2.35 118 2.35
 118  0.813  0.563  0.563-  21 2.35 117 2.35 119 2.35 125 2.35
 119  0.750  0.500  0.750-  88 2.35 112 2.35 118 2.35 120 2.35
 120  0.813  0.563  0.813-  23 2.35 113 2.35 119 2.35 127 2.35
 121  0.750  0.750  0.000-  90 2.35 114 2.35 122 2.35 128 2.35
 122  0.813  0.813  0.063-  25 2.35  97 2.35 121 2.35 123 2.35
 123  0.750  0.750  0.250-  92 2.35 116 2.35 122 2.35 124 2.35
 124  0.813  0.813  0.313-  27 2.35  99 2.35 123 2.35 125 2.35
 125  0.750  0.750  0.500-  94 2.35 118 2.35 124 2.35 126 2.35
 126  0.813  0.813  0.563-  29 2.35 101 2.35 125 2.35 127 2.35
 127  0.750  0.750  0.750-  96 2.35 120 2.35 126 2.35 128 2.35
 128  0.813  0.813  0.813-  31 2.35 103 2.35 121 2.35 127 2.35
 
  LATTYP: Found a face centered cubic cell.
 ALAT       =    21.7200000000
  
  Lattice vectors:
  
 A1 = (  10.8600000000,  10.8600000000,   0.0000000000)
 A2 = (   0.0000000000,  10.8600000000,  10.8600000000)
 A3 = (  10.8600000000,   0.0000000000,  10.8600000000)


Analysis of symmetry for initial positions (statically):
=====================================================================
 Subroutine PRICEL returns following result:
 
  LATTYP: Found a face centered cubic cell.
 ALAT       =     5.4300000000
  
  Lattice vectors:
  
 A1 = (   2.7150000000,   2.7150000000,   0.0000000000)
 A2 = (   0.0000000000,   2.7150000000,   2.7150000000)
 A3 = (   2.7150000000,   0.0000000000,   2.7150000000)
 
  64 primitive cells build up your supercell.
 

 Routine SETGRP: Setting up the symmetry group for a 
 face centered cubic supercell.


 Subroutine GETGRP returns: Found 48 space group operations
 (whereof 24 operations were pure point group operations)
 out of a pool of 48 trial point group operations.


The static configuration has the point symmetry T_d .
 The point group associated with its full space group is O_h .


Analysis of symmetry for dynamics (positions and initial velocities):
=====================================================================
 Subroutine PRICEL returns following result:
 
  LATTYP: Found a face centered cubic cell.
 ALAT       =     5.4300000000
  
  Lattice vectors:
  
 A1 = (   2.7150000000,   2.7150000000,   0.0000000000)
 A2 = (   0.0000000000,   2.7150000000,   2.7150000000)
 A3 = (   2.7150000000,   0.0000000000,   2.7150000000)
 
  64 primitive cells build up your supercell.
 

 Routine SETGRP: Setting up the symmetry group for a 
 face centered cubic supercell.


 Subroutine GETGRP returns: Found 48 space group operations
 (whereof 24 operations were pure point group operations)
 out of a pool of 48 trial point group operations.


The dynamic configuration has the point symmetry T_d .
 The point group associated with its full space group is O_h .


 Subroutine INISYM returns: Found 48 space group operations
 (whereof 24 operations are pure point group operations),
 and found    64 'primitive' translations


----------------------------------------------------------------------------------------

                                     Primitive cell                                     

  volume of cell :      40.0258

  direct lattice vectors                    reciprocal lattice vectors
     2.715000000  2.715000000  0.000000000     0.184162063  0.184162063 -0.184162063
     0.000000000  2.715000000  2.715000000    -0.184162063  0.184162063  0.184162063
     2.715000000  0.000000000  2.715000000     0.184162063 -0.184162063  0.184162063

  length of vectors
     3.839589822  3.839589822  3.839589822     0.318978049  0.318978049  0.318978049

  position of ions in fractional coordinates (direct lattice)
     0.000000000  0.000000000  0.000000000
     0.250000000  0.250000000  0.250000000

  ion indices of the primitive-cell ions
   primitive index   ion index
                 1           1
                 2           2

----------------------------------------------------------------------------------------

 
 
 KPOINTS: Automatic k-point mesh                  

Automatic generation of k-mesh.
 Grid dimensions read from file:
 generate k-points for:    2    2    2

 Generating k-lattice:

  Cartesian coordinates                     Fractional coordinates (reciprocal lattice)
     0.023020258  0.023020258 -0.023020258     0.500000000 -0.000000000 -0.000000000
    -0.023020258  0.023020258  0.023020258     0.000000000  0.500000000  0.000000000
     0.023020258 -0.023020258  0.023020258    -0.000000000  0.000000000  0.500000000

  Length of vectors
     0.039872256  0.039872256  0.039872256

  Shift w.r.t. Gamma in fractional coordinates (k-lattice)
     0.000000000  0.000000000  0.000000000

 
 Subroutine IBZKPT returns following result:
 ===========================================
 
 Found      3 irreducible k-points:
 
 Following reciprocal coordinates:
            Coordinates               Weight
  0.000000  0.000000  0.000000      1.000000
  0.500000  0.000000  0.000000      4.000000
  0.500000  0.500000  0.000000      3.000000
 
 Following cartesian coordinates:
            Coordinates               Weight
  0.000000  0.000000  0.000000      1.000000
  0.125000  0.125000 -0.125000      4.000000
  0.000000  0.250000  0.000000      3.000000
 


--------------------------------------------------------------------------------------------------------




 Dimension of arrays:
   k-points           NKPTS =      3   k-points in BZ     NKDIM =      3   number of bands    NBANDS=    321
   number of dos      NEDOS =    301   number of ions     NIONS =    128
   non local maximal  LDIM  =      4   non local SUM 2l+1 LMDIM =      8
   total plane-waves  NPLWV = 512000
   max r-space proj   IRMAX =   1595   max aug-charges    IRDMAX=   6881
   dimension x,y,z NGX =    80 NGY =   80 NGZ =   80
   dimension x,y,z NGXF=   160 NGYF=  160 NGZF=  160
   support grid    NGXF=   160 NGYF=  160 NGZF=  160
   ions per type =             128
   NGX,Y,Z   is equivalent  to a cutoff of   8.66,  8.66,  8.66 a.u.
   NGXF,Y,Z  is equivalent  to a cutoff of  17.32, 17.32, 17.32 a.u.

 SYSTEM =  Si_scaling                              
 POSCAR =  Si 4x4x4 primitive supercell (128 atoms)

 Startparameter for this run:
   NWRITE =      2    write-flag & timer
   PREC   = normal    normal or accurate (medium, high low for compatibility)
   ISTART =      1    job   : 0-new  1-cont  2-samecut
   ICHARG =      0    charge: 1-file 2-atom 10-const
   ISPIN  =      1    spin polarized calculation?
   LNONCOLLINEAR =      F non collinear calculations
   LSORBIT =      F    spin-orbit coupling
   INIWAV =      1    electr: 0-lowe 1-rand  2-diag
   LASPH  =      F    aspherical Exc in radial PAW
 Electronic Relaxation 1
   ENCUT  =  400.0 eV  29.40 Ry    5.42 a.u.  25.05 25.05 25.05*2*pi/ulx,y,z
   ENINI  =  400.0     initial cutoff
   ENAUG  =  322.1 eV  augmentation charge cutoff
   NELM   =     20;   NELMIN= 20; NELMDL=  0     # of ELM steps 
   EDIFF  = 0.1E-05   stopping-criterion for ELM
   LREAL  =      T    real-space projection
   NLSPLINE    = F    spline interpolate recip. space projectors
   LCOMPAT=      F    compatible to vasp.4.4
   GGA_COMPAT  = T    GGA compatible to vasp.4.4-vasp.4.6
   LMAXPAW     = -100 max onsite density
   LMAXMIX     =    2 max onsite mixed and CHGCAR
   VOSKOWN=      0    Vosko Wilk Nusair interpolation
   ROPT   =   -0.00050
 Ionic relaxation
   EDIFFG = 0.1E-04   stopping-criterion for IOM
   NSW    =      0    number of steps for IOM
   NBLOCK =      1;   KBLOCK =      1    inner block; outer block 
   IBRION =     -1    ionic relax: 0-MD 1-quasi-New 2-CG
   NFREE  =      0    steps in history (QN), initial steepest desc. (CG)
   ISIF   =      2    stress and relaxation
   IWAVPR =     10    prediction:  0-non 1-charg 2-wave 3-comb
   ISYM   =      2    0-nonsym 1-usesym 2-fastsym
   LCORR  =      T    Harris-Foulkes like correction to forces

   POTIM  = 0.5000    time-step for ionic-motion
   TEIN   =    0.0    initial temperature
   TEBEG  =    0.0;   TEEND  =   0.0 temperature during run
   SMASS  =  -3.00    Nose mass-parameter (am)
   estimated Nose-frequenzy (Omega)   =  0.10E-29 period in steps = 0.13E+47 mass=  -0.539E-26a.u.
   SCALEE = 1.0000    scale energy and forces
   NPACO  =    256;   APACO  = 10.0  distance and # of slots for P.C.
   PSTRESS=    0.0 pullay stress

  Mass of Ions in am
   POMASS =  28.09
  Ionic Valenz
   ZVAL   =   4.00
  Atomic Wigner-Seitz radii
   RWIGS  =  -1.00
  virtual crystal weights 
   VCA    =   1.00
   NELECT =     512.0000    total number of electrons
   NUPDOWN=      -1.0000    fix difference up-down

 DOS related values:
   EMIN   =  10.00;   EMAX   =-10.00  energy-range for DOS
   EFERMI =   0.00;   METHOD = LEGACY      
   ISMEAR =     0;   SIGMA  =   0.05  broadening in eV -4-tet -1-fermi 0-gaus
   EFERMI_NEDOS =   21; number of points for ismear=-14 and -15

 Electronic relaxation 2 (details)
   IALGO  =     38    algorithm
   LDIAG  =      T    sub-space diagonalisation (order eigenvalues)
   LSUBROT=      F    optimize rotation matrix (better conditioning)
   LROBUST=      F    robust break criterion during scf (extrapolated energy error)
   ISEARCH=      0    line search for conjugate gradient (0, 1=use gradient)
   TURBO    =      0    0=normal 1=particle mesh
   IRESTART =      0    0=no restart 2=restart with 2 vectors
   NREBOOT  =      0    no. of reboots
   NMIN     =      0    reboot dimension
   EREF     =   0.00    reference energy to select bands
   IMIX   =      4    mixing-type and parameters
     AMIX     =   0.40;   BMIX     =  1.00
     AMIX_MAG =   1.60;   BMIX_MAG =  1.00
     AMIN     =   0.10
     WC   =   100.;   INIMIX=   1;  MIXPRE=   1;  MAXMIX= -45

 Intra band minimization:
   WEIMIN = 0.0000     energy-eigenvalue tresh-hold
   EBREAK =  0.78E-09  absolut break condition
   DEPER  =   0.30     relativ break condition  

   TIME   =   0.40     timestep for ELM

  volume/ion in A,a.u.               =      20.01       135.05
  Fermi-wavevector in a.u.,A,eV,Ry     =   0.957176  1.808800 12.465458  0.916185
  Thomas-Fermi vector in A             =   2.086170
 
 Write flags
   LWAVE        =      T    write WAVECAR
   LDOWNSAMPLE  =      F    k-point downsampling of WAVECAR
   LCHARG       =      T    write CHGCAR
   LVTOT        =      F    write LOCPOT, total local potential
   LVHAR        =      F    write LOCPOT, Hartree potential only
   WRT_POTENTIAL= false  ! write potential to hdf5 file
   LELF         =      F    write electronic localiz. function (ELF)
   LORBIT       =      0    0 simple, 1 ext, 2 COOP (PROOUT), +10 PAW based schemes


 Python interface
   PLUGINS active      =      F    recompile with -DPLUGINS to activate
 
 Dipole corrections
   LMONO      =      F    monopole corrections only (constant potential shift)
   LDIPOL     =      F    correct potential (dipole corrections)
   IDIPOL     =      0    1-x, 2-y, 3-z, 4-all directions 
   EPSILON    =  1.0000000 bulk dielectric constant
   LVACPOTAV  =      F  vacuum potentials using an averaging scheme for the charge density
   VACPOTFLAT =  0.1000000 required flatness to determine vacuum potential
 
Coulomb truncation method
  LTRUNCATE          =      F  Coulomb kernel truncation to be used

 
 Exchange correlation treatment:
   GGA     = PE    functional components
   XC_C    = 1    coefficients multiplying the functional components
   LIBXC   =     F    Libxc                    
   VOSKOWN =     0    Vosko Wilk Nusair interpolation
   LHFCALC =     F    Hartree Fock is set to
   LHFONE  =     F    Hartree Fock one center treatment
   AEXX    =    0.0000 exact exchange contribution

 Parameters of functionals:
   PE:
     No parameter
 
 Van der Waals corrections
   IVDW    =     0    specifies the selected vdW correction

 Linear response parameters
   LEPSILON=     F    determine dielectric tensor
   LRPA    =     F    only Hartree local field effects (RPA)
   LNABLA  =     F    use nabla operator in PAW spheres
   LVEL    =     F    velocity operator in full k-point grid
   CSHIFT  =0.1000    complex shift for real part using Kramers Kronig
   OMEGAMAX=  -1.0    maximum frequency
   DEG_THRESHOLD= 0.2000000E-02 threshold for treating states as degnerate
   RTIME   =   -0.100 relaxation time in fs
  (WPLASMAI=    0.000 imaginary part of plasma frequency in eV, 0.658/RTIME)
   DFIELD  = 0.0000000 0.0000000 0.0000000 field for delta impulse in time
 
  Optional k-point grid parameters
   LKPOINTS_OPT  =     F    use optional k-point grid
   KPOINTS_OPT_MODE=     1    mode for optional k-point grid
 
 Orbital magnetization related:
   ORBITALMAG=     F  switch on orbital magnetization
   LCHIMAG   =     F  perturbation theory with respect to B field
   DQ        =  0.001000  dq finite difference perturbation B field
   LLRAUG    =     F  two centre corrections for induced B field
   LBONE     =     F  B-component reconstruction in AE one-centre
   LVGVCALC  =     T  calculate vGv susceptibility
   LVGVAPPL  =     F  apply vGv susceptibility instead of pGv for G=0

 Random number generation:
   RANDOM_GENERATOR = DEFAULT
   PCG_SEED         = not used


--------------------------------------------------------------------------------------------------------


 Static calculation
 charge density and potential will be updated during run
 non-spin polarized calculation
 Variant of blocked Davidson
 Davidson routine will perform the subspace rotation
 perform sub-space diagonalisation
    after iterative eigenvector-optimisation
 modified Broyden-mixing scheme, WC =      100.0
 initial mixing is a Kerker type mixing with AMIX =  0.4000 and BMIX =      1.0000
 Hartree-type preconditioning will be used
 using additional bands            65
 real space projection scheme for non local part
 use partial core corrections
 calculate Harris-corrections to forces 
   (improved forces if not selfconsistent)
 use gradient corrections 
 use of overlap-Matrix (Vanderbilt PP)
 Gauss-broadening in eV      SIGMA  =   0.05


--------------------------------------------------------------------------------------------------------


  energy-cutoff  :      400.00
  volume of cell :     2561.65
      direct lattice vectors                 reciprocal lattice vectors
    10.860000000 10.860000000  0.000000000     0.046040516  0.046040516 -0.046040516
     0.000000000 10.860000000 10.860000000    -0.046040516  0.046040516  0.046040516
    10.860000000  0.000000000 10.860000000     0.046040516 -0.046040516  0.046040516

  length of vectors
    15.358359287 15.358359287 15.358359287     0.079744512  0.079744512  0.079744512


 
 old parameters found on file WAVECAR:
  energy-cutoff  :      400.00
  volume of cell :     2561.65
      direct lattice vectors                 reciprocal lattice vectors
    10.860000000 10.860000000  0.000000000     0.046040516  0.046040516 -0.046040516
     0.000000000 10.860000000 10.860000000    -0.046040516  0.046040516  0.046040516
    10.860000000  0.000000000 10.860000000     0.046040516 -0.046040516  0.046040516

  length of vectors

 
 k-points in units of 2pi/SCALE and weight: Automatic k-point mesh                  
   0.00000000  0.00000000  0.00000000       0.125
   0.12500000  0.12500000 -0.12500000       0.500
   0.00000000  0.25000000  0.00000000       0.375
 
 k-points in reciprocal lattice and weights: Automatic k-point mesh                  
   0.00000000  0.00000000  0.00000000       0.125
   0.50000000  0.00000000  0.00000000       0.500
   0.50000000  0.50000000  0.00000000       0.375
 
 position of ions in fractional coordinates (direct lattice) 
   0.00000000  0.00000000  0.00000000
   0.06250000  0.06250000  0.06250000
   0.00000000  0.00000000  0.25000000
   0.06250000  0.06250000  0.31250000
   0.00000000  0.00000000  0.50000000
   0.06250000  0.06250000  0.56250000
   0.00000000  0.00000000  0.75000000
   0.06250000  0.06250000  0.81250000
   0.00000000  0.25000000  0.00000000
   0.06250000  0.31250000  0.06250000
   0.00000000  0.25000000  0.25000000
   0.06250000  0.31250000  0.31250000
   0.00000000  0.25000000  0.50000000
   0.06250000  0.31250000  0.56250000
   0.00000000  0.25000000  0.75000000
   0.06250000  0.31250000  0.81250000
   0.00000000  0.50000000  0.00000000
   0.06250000  0.56250000  0.06250000
   0.00000000  0.50000000  0.25000000
   0.06250000  0.56250000  0.31250000
   0.00000000  0.50000000  0.50000000
   0.06250000  0.56250000  0.56250000
   0.00000000  0.50000000  0.75000000
   0.06250000  0.56250000  0.81250000
   0.00000000  0.75000000  0.00000000
   0.06250000  0.81250000  0.06250000
   0.00000000  0.75000000  0.25000000
   0.06250000  0.81250000  0.31250000
   0.00000000  0.75000000  0.50000000
   0.06250000  0.81250000  0.56250000
   0.00000000  0.75000000  0.75000000
   0.06250000  0.81250000  0.81250000
   0.25000000  0.00000000  0.00000000
   0.31250000  0.06250000  0.06250000
   0.25000000  0.00000000  0.25000000
   0.31250000  0.06250000  0.31250000
   0.25000000  0.00000000  0.50000000
   0.31250000  0.06250000  0.56250000
   0.25000000  0.00000000  0.75000000
   0.31250000  0.06250000  0.81250000
   0.25000000  0.25000000  0.00000000
   0.31250000  0.31250000  0.06250000
   0.25000000  0.25000000  0.25000000
   0.31250000  0.31250000  0.31250000
   0.25000000  0.25000000  0.50000000
   0.31250000  0.31250000  0.56250000
   0.25000000  0.25000000  0.75000000
   0.31250000  0.31250000  0.81250000
   0.25000000  0.50000000  0.00000000
   0.31250000  0.56250000  0.06250000
   0.25000000  0.50000000  0.25000000
   0.31250000  0.56250000  0.31250000
   0.25000000  0.50000000  0.50000000
   0.31250000  0.56250000  0.56250000
   0.25000000  0.50000000  0.75000000
   0.31250000  0.56250000  0.81250000
   0.25000000  0.75000000  0.00000000
   0.31250000  0.81250000  0.06250000
   0.25000000  0.75000000  0.25000000
   0.31250000  0.81250000  0.31250000
   0.25000000  0.75000000  0.50000000
   0.31250000  0.81250000  0.56250000
   0.25000000  0.75000000  0.75000000
   0.31250000  0.81250000  0.81250000
   0.50000000  0.00000000  0.00000000
   0.56250000  0.06250000  0.06250000
   0.50000000  0.00000000  0.25000000
   0.56250000  0.06250000  0.31250000
   0.50000000  0.00000000  0.50000000
   0.56250000  0.06250000  0.56250000
   0.50000000  0.00000000  0.75000000
   0.56250000  0.06250000  0.81250000
   0.50000000  0.25000000  0.00000000
   0.56250000  0.31250000  0.06250000
   0.50000000  0.25000000  0.25000000
   0.56250000  0.31250000  0.31250000
   0.50000000  0.25000000  0.50000000
   0.56250000  0.31250000  0.56250000
   0.50000000  0.25000000  0.75000000
   0.56250000  0.31250000  0.81250000
   0.50000000  0.50000000  0.00000000
   0.56250000  0.56250000  0.06250000
   0.50000000  0.50000000  0.25000000
   0.56250000  0.56250000  0.31250000
   0.50000000  0.50000000  0.50000000
   0.56250000  0.56250000  0.56250000
   0.50000000  0.50000000  0.75000000
   0.56250000  0.56250000  0.81250000
   0.50000000  0.75000000  0.00000000
   0.56250000  0.81250000  0.06250000
   0.50000000  0.75000000  0.25000000
   0.56250000  0.81250000  0.31250000
   0.50000000  0.75000000  0.50000000
   0.56250000  0.81250000  0.56250000
   0.50000000  0.75000000  0.75000000
   0.56250000  0.81250000  0.81250000
   0.75000000  0.00000000  0.00000000
   0.81250000  0.06250000  0.06250000
   0.75000000  0.00000000  0.25000000
   0.81250000  0.06250000  0.31250000
   0.75000000  0.00000000  0.50000000
   0.81250000  0.06250000  0.56250000
   0.75000000  0.00000000  0.75000000
   0.81250000  0.06250000  0.81250000
   0.75000000  0.25000000  0.00000000
   0.81250000  0.31250000  0.06250000
   0.75000000  0.25000000  0.25000000
   0.81250000  0.31250000  0.31250000
   0.75000000  0.25000000  0.50000000
   0.81250000  0.31250000  0.56250000
   0.75000000  0.25000000  0.75000000
   0.81250000  0.31250000  0.81250000
   0.75000000  0.50000000  0.00000000
   0.81250000  0.56250000  0.06250000
   0.75000000  0.50000000  0.25000000
   0.81250000  0.56250000  0.31250000
   0.75000000  0.50000000  0.50000000
   0.81250000  0.56250000  0.56250000
   0.75000000  0.50000000  0.75000000
   0.81250000  0.56250000  0.81250000
   0.75000000  0.75000000  0.00000000
   0.81250000  0.81250000  0.06250000
   0.75000000  0.75000000  0.25000000
   0.81250000  0.81250000  0.31250000
   0.75000000  0.75000000  0.50000000
   0.81250000  0.81250000  0.56250000
   0.75000000  0.75000000  0.75000000
   0.81250000  0.81250000  0.81250000
 
 position of ions in cartesian coordinates  (Angst):
   0.00000000  0.00000000  0.00000000
   1.35750000  1.35750000  1.35750000
   2.71500000  0.00000000  2.71500000
   4.07250000  1.35750000  4.07250000
   5.43000000  0.00000000  5.43000000
   6.78750000  1.35750000  6.78750000
   8.14500000  0.00000000  8.14500000
   9.50250000  1.35750000  9.50250000
   0.00000000  2.71500000  2.71500000
   1.35750000  4.07250000  4.07250000
   2.71500000  2.71500000  5.43000000
   4.07250000  4.07250000  6.78750000
   5.43000000  2.71500000  8.14500000
   6.78750000  4.07250000  9.50250000
   8.14500000  2.71500000 10.86000000
   9.50250000  4.07250000 12.21750000
   0.00000000  5.43000000  5.43000000
   1.35750000  6.78750000  6.78750000
   2.71500000  5.43000000  8.14500000
   4.07250000  6.78750000  9.50250000
   5.43000000  5.43000000 10.86000000
   6.78750000  6.78750000 12.21750000
   8.14500000  5.43000000 13.57500000
   9.50250000  6.78750000 14.93250000
   0.00000000  8.14500000  8.14500000
   1.35750000  9.50250000  9.50250000
   2.71500000  8.14500000 10.86000000
   4.07250000  9.50250000 12.21750000
   5.43000000  8.14500000 13.57500000
   6.78750000  9.50250000 14.93250000
   8.14500000  8.14500000 16.29000000
   9.50250000  9.50250000 17.64750000
   2.71500000  2.71500000  0.00000000
   4.07250000  4.07250000  1.35750000
   5.43000000  2.71500000  2.71500000
   6.78750000  4.07250000  4.07250000
   8.14500000  2.71500000  5.43000000
   9.50250000  4.07250000  6.78750000
  10.86000000  2.71500000  8.14500000
  12.21750000  4.07250000  9.50250000
   2.71500000  5.43000000  2.71500000
   4.07250000  6.78750000  4.07250000
   5.43000000  5.43000000  5.43000000
   6.78750000  6.78750000  6.78750000
   8.14500000  5.43000000  8.14500000
   9.50250000  6.78750000  9.50250000
  10.86000000  5.43000000 10.86000000
  12.21750000  6.78750000 12.21750000
   2.71500000  8.14500000  5.43000000
   4.07250000  9.50250000  6.78750000
   5.43000000  8.14500000  8.14500000
   6.78750000  9.50250000  9.50250000
   8.14500000  8.14500000 10.86000000
   9.50250000  9.50250000 12.21750000
  10.86000000  8.14500000 13.57500000
  12.21750000  9.50250000 14.93250000
   2.71500000 10.86000000  8.14500000
   4.07250000 12.21750000  9.50250000
   5.43000000 10.86000000 10.86000000
   6.78750000 12.21750000 12.21750000
   8.14500000 10.86000000 13.57500000
   9.50250000 12.21750000 14.93250000
  10.86000000 10.86000000 16.29000000
  12.21750000 12.21750000 17.64750000
   5.43000000  5.43000000  0.00000000
   6.78750000  6.78750000  1.35750000
   8.14500000  5.43000000  2.71500000
   9.50250000  6.78750000  4.07250000
  10.86000000  5.43000000  5.43000000
  12.21750000  6.78750000  6.78750000
  13.57500000  5.43000000  8.14500000
  14.93250000  6.78750000  9.50250000
   5.43000000  8.14500000  2.71500000
   6.78750000  9.50250000  4.07250000
   8.14500000  8.14500000  5.43000000
   9.50250000  9.50250000  6.78750000
  10.86000000  8.14500000  8.14500000
  12.21750000  9.50250000  9.50250000
  13.57500000  8.14500000 10.86000000
  14.93250000  9.50250000 12.21750000
   5.43000000 10.86000000  5.43000000
   6.78750000 12.21750000  6.78750000
   8.14500000 10.86000000  8.14500000
   9.50250000 12.21750000  9.50250000
  10.86000000 10.86000000 10.86000000
  12.21750000 12.21750000 12.21750000
  13.57500000 10.86000000 13.57500000
  14.93250000 12.21750000 14.93250000
   5.43000000 13.57500000  8.14500000
   6.78750000 14.93250000  9.50250000
   8.14500000 13.57500000 10.86000000
   9.50250000 14.93250000 12.21750000
  10.86000000 13.57500000 13.57500000
  12.21750000 14.93250000 14.93250000
  13.57500000 13.57500000 16.29000000
  14.93250000 14.93250000 17.64750000
   8.14500000  8.14500000  0.00000000
   9.50250000  9.50250000  1.35750000
  10.86000000  8.14500000  2.71500000
  12.21750000  9.50250000  4.07250000
  13.57500000  8.14500000  5.43000000
  14.93250000  9.50250000  6.78750000
  16.29000000  8.14500000  8.14500000
  17.64750000  9.50250000  9.50250000
   8.14500000 10.86000000  2.71500000
   9.50250000 12.21750000  4.07250000
  10.86000000 10.86000000  5.43000000
  12.21750000 12.21750000  6.78750000
  13.57500000 10.86000000  8.14500000
  14.93250000 12.21750000  9.50250000
  16.29000000 10.86000000 10.86000000
  17.64750000 12.21750000 12.21750000
   8.14500000 13.57500000  5.43000000
   9.50250000 14.93250000  6.78750000
  10.86000000 13.57500000  8.14500000
  12.21750000 14.93250000  9.50250000
  13.57500000 13.57500000 10.86000000
  14.93250000 14.93250000 12.21750000
  16.29000000 13.57500000 13.57500000
  17.64750000 14.93250000 14.93250000
   8.14500000 16.29000000  8.14500000
   9.50250000 17.64750000  9.50250000
  10.86000000 16.29000000 10.86000000
  12.21750000 17.64750000 12.21750000
  13.57500000 16.29000000 13.57500000
  14.93250000 17.64750000 14.93250000
  16.29000000 16.29000000 16.29000000
  17.64750000 17.64750000 17.64750000
 


--------------------------------------------------------------------------------------------------------


 k-point     1 :   0.0000 0.0000 0.0000  plane waves:   46367
 k-point     2 :   0.5000 0.0000 0.0000  plane waves:   46468
 k-point     3 :   0.5000 0.5000 0.0000  plane waves:   46648

 maximum and minimum number of plane-waves per node :     46648    46367

 maximum number of plane-waves:     46648
 maximum index in each direction: 
   IXMAX=   25   IYMAX=   25   IZMAX=   25
   IXMIN=  -25   IYMIN=  -25   IZMIN=  -25


 serial   3D FFT for wavefunctions
 parallel 3D FFT for charge:
    minimum data exchange during FFTs selected (reduces bandwidth)


 total amount of memory used by VASP MPI-rank0  1141801. kBytes
=======================================================================

   base                                    :      30000. kBytes
   nonlr-proj                              :      16950. kBytes
   fftplans                                :     141100. kBytes
   grid                                    :     218828. kBytes
   one-center                              :        393. kBytes
   wavefun                                 :     734530. kBytes
 
     INWAV:  cpu time      0.7737: real time      0.8305
 Broyden mixing: mesh for mixing (old mesh)
   NGX = 51   NGY = 51   NGZ = 51
  (NGX  =160   NGY  =160   NGZ  =160)
  gives a total of 132651 points

 charge density for first step will be calculated from the start-wavefunctions


--------------------------------------------------------------------------------------------------------


 Maximum index for non-local projection operator          1505
 Maximum index for augmentation-charges          6531 (set IRDMAX)


--------------------------------------------------------------------------------------------------------


 initial charge from wavefunction
 First call to EWALD:  gamma=   0.130
 Maximum number of real-space cells   3x   3x   3
 Maximum number of reciprocal cells   3x   3x   3

    FEWALD:  cpu time      0.6778: real time      0.6797


--------------------------------------- Ionic step        1  -------------------------------------------




--------------------------------------- Iteration      1(   1)  ---------------------------------------


    POTLOK:  cpu time      0.0262: real time      0.0321
    SETDIJ:  cpu time      0.0344: real time      0.0345
     EDDAV:  cpu time      0.4069: real time      0.4151
       DOS:  cpu time      0.0005: real time      0.0005
    CHARGE:  cpu time      0.2829: real time      0.2839
    MIXING:  cpu time      0.1007: real time      0.1030
    --------------------------------------------
      LOOP:  cpu time      0.8516: real time      0.8691

 eigenvalue-minimisations  :  1068
 total energy-change (2. order) :-0.6939029E+03  (-0.1405453E-10)
 number of electron     512.0000252 magnetization 
 augmentation part      -29.3556442 magnetization 

 Broyden mixing:
  rms(total) = 0.43894E-06    rms(broyden)= 0.43894E-06
  rms(prec ) = 0.44005E-06
  weight for this iteration     100.00

 Free energy of the ion-electron system (eV)
  ---------------------------------------------------
  alpha Z        PSCENC =       215.30542483
  Ewald energy   TEWEN  =    -14628.06963411
  -Hartree energ DENC   =      -955.50616329
  -exchange      EXHF   =         0.00000000
  -V(xc)+E(xc)   XCENC  =     -1149.43423075
  PAW double counting   =     55501.74776370   -53264.16697128
  entropy T*S    EENTRO =        -0.00000000
  eigenvalues    EBANDS =       393.80543652
  atomic energy  EATOM  =     13192.41551723
  Solvation  Ediel_sol  =         0.00000000
  ---------------------------------------------------
  free energy    TOTEN  =      -693.90285716 eV

  energy without entropy =     -693.90285716  energy(sigma->0) =     -693.90285716


--------------------------------------------------------------------------------------------------------




--------------------------------------- Iteration      1(   2)  ---------------------------------------


    POTLOK:  cpu time      0.0154: real time      0.0156
    SETDIJ:  cpu time      0.0323: real time      0.0324
     EDDAV:  cpu time      0.2220: real time      0.2229
       DOS:  cpu time      0.0007: real time      0.0007
    CHARGE:  cpu time      0.2729: real time      0.2739
    MIXING:  cpu time      0.1167: real time      0.1192
    --------------------------------------------
      LOOP:  cpu time      0.6600: real time      0.6645

 eigenvalue-minimisations  :  1068
 total energy-change (2. order) : 0.2578417E-09  (-0.7197008E-11)
 number of electron     512.0000252 magnetization 
 augmentation part      -29.3556443 magnetization 

 Broyden mixing:
  rms(total) = 0.58776E-06    rms(broyden)= 0.58776E-06
  rms(prec ) = 0.58784E-06
  weight for this iteration     100.00

 eigenvalues of (default mixing * dielectric matrix)
  average eigenvalue GAMMA=   2.7818
  2.7818

 Free energy of the ion-electron system (eV)
  ---------------------------------------------------
  alpha Z        PSCENC =       215.30542483
  Ewald energy   TEWEN  =    -14628.06963411
  -Hartree energ DENC   =      -955.50616069
  -exchange      EXHF   =         0.00000000
  -V(xc)+E(xc)   XCENC  =     -1149.43423110
  PAW double counting   =     55501.74591325   -53264.16512070
  entropy T*S    EENTRO =        -0.00000000
  eigenvalues    EBANDS =       393.80543413
  atomic energy  EATOM  =     13192.41551723
  Solvation  Ediel_sol  =         0.00000000
  ---------------------------------------------------
  free energy    TOTEN  =      -693.90285716 eV

  energy without entropy =     -693.90285716  energy(sigma->0) =     -693.90285716


--------------------------------------------------------------------------------------------------------




--------------------------------------- Iteration      1(   3)  ---------------------------------------


    POTLOK:  cpu time      0.0142: real time      0.0147
    SETDIJ:  cpu time      0.0333: real time      0.0335
     EDDAV:  cpu time      0.2181: real time      0.2190
       DOS:  cpu time      0.0012: real time      0.0012
    CHARGE:  cpu time      0.2784: real time      0.2793
    MIXING:  cpu time      0.1063: real time      0.1089
    --------------------------------------------
      LOOP:  cpu time      0.6516: real time      0.6566

 eigenvalue-minimisations  :  1044
 total energy-change (2. order) :-0.4323510E-09  (-0.3823545E-11)
 number of electron     512.0000252 magnetization 
 augmentation part      -29.3556443 magnetization 

 Broyden mixing:
  rms(total) = 0.13512E-05    rms(broyden)= 0.13512E-05
  rms(prec ) = 0.13515E-05
  weight for this iteration     100.00

 eigenvalues of (default mixing * dielectric matrix)
  average eigenvalue GAMMA=   1.3946
  1.3946  1.3946

 Free energy of the ion-electron system (eV)
  ---------------------------------------------------
  alpha Z        PSCENC =       215.30542483
  Ewald energy   TEWEN  =    -14628.06963411
  -Hartree energ DENC   =      -955.50616237
  -exchange      EXHF   =         0.00000000
  -V(xc)+E(xc)   XCENC  =     -1149.43423063
  PAW double counting   =     55501.75224642   -53264.17145387
  entropy T*S    EENTRO =        -0.00000000
  eigenvalues    EBANDS =       393.80543535
  atomic energy  EATOM  =     13192.41551723
  Solvation  Ediel_sol  =         0.00000000
  ---------------------------------------------------
  free energy    TOTEN  =      -693.90285716 eV

  energy without entropy =     -693.90285716  energy(sigma->0) =     -693.90285716


--------------------------------------------------------------------------------------------------------




--------------------------------------- Iteration      1(   4)  ---------------------------------------


    POTLOK:  cpu time      0.0148: real time      0.0149
    SETDIJ:  cpu time      0.0327: real time      0.0329
     EDDAV:  cpu time      0.2211: real time      0.2220
       DOS:  cpu time      0.0009: real time      0.0009
    CHARGE:  cpu time      0.2704: real time      0.2712
    MIXING:  cpu time      0.1097: real time      0.1121
    --------------------------------------------
      LOOP:  cpu time      0.6497: real time      0.6540

 eigenvalue-minimisations  :  1044
 total energy-change (2. order) : 0.6134542E-09  (-0.2084717E-11)
 number of electron     512.0000252 magnetization 
 augmentation part      -29.3556444 magnetization 

 Broyden mixing:
  rms(total) = 0.39304E-06    rms(broyden)= 0.39304E-06
  rms(prec ) = 0.39316E-06
  weight for this iteration     100.00

 eigenvalues of (default mixing * dielectric matrix)
  average eigenvalue GAMMA=   1.1069
  1.8916  1.2225  0.2067

 Free energy of the ion-electron system (eV)
  ---------------------------------------------------
  alpha Z        PSCENC =       215.30542483
  Ewald energy   TEWEN  =    -14628.06963411
  -Hartree energ DENC   =      -955.50615986
  -exchange      EXHF   =         0.00000000
  -V(xc)+E(xc)   XCENC  =     -1149.43423139
  PAW double counting   =     55501.74164256   -53264.16085003
  entropy T*S    EENTRO =        -0.00000000
  eigenvalues    EBANDS =       393.80543361
  atomic energy  EATOM  =     13192.41551723
  Solvation  Ediel_sol  =         0.00000000
  ---------------------------------------------------
  free energy    TOTEN  =      -693.90285716 eV

  energy without entropy =     -693.90285716  energy(sigma->0) =     -693.90285716


--------------------------------------------------------------------------------------------------------




--------------------------------------- Iteration      1(   5)  ---------------------------------------


    POTLOK:  cpu time      0.0136: real time      0.0137
    SETDIJ:  cpu time      0.0342: real time      0.0343
     EDDAV:  cpu time      0.2182: real time      0.2191
       DOS:  cpu time      0.0004: real time      0.0004
    CHARGE:  cpu time      0.2701: real time      0.2711
    MIXING:  cpu time      0.1110: real time      0.1135
    --------------------------------------------
      LOOP:  cpu time      0.6476: real time      0.6521

 eigenvalue-minimisations  :  1044
 total energy-change (2. order) : 0.3589093E-09  (-0.6189649E-12)
 number of electron     512.0000252 magnetization 
 augmentation part      -29.3556444 magnetization 

 Broyden mixing:
  rms(total) = 0.12369E-06    rms(broyden)= 0.12369E-06
  rms(prec ) = 0.12395E-06
  weight for this iteration     100.00

 eigenvalues of (default mixing * dielectric matrix)
  average eigenvalue GAMMA=   1.1774
  1.5354  1.0536  1.0536  1.0673

 Free energy of the ion-electron system (eV)
  ---------------------------------------------------
  alpha Z        PSCENC =       215.30542483
  Ewald energy   TEWEN  =    -14628.06963411
  -Hartree energ DENC   =      -955.50615900
  -exchange      EXHF   =         0.00000000
  -V(xc)+E(xc)   XCENC  =     -1149.43423163
  PAW double counting   =     55501.73850561   -53264.15771307
  entropy T*S    EENTRO =        -0.00000000
  eigenvalues    EBANDS =       393.80543298
  atomic energy  EATOM  =     13192.41551723
  Solvation  Ediel_sol  =         0.00000000
  ---------------------------------------------------
  free energy    TOTEN  =      -693.90285716 eV

  energy without entropy =     -693.90285716  energy(sigma->0) =     -693.90285716


--------------------------------------------------------------------------------------------------------




--------------------------------------- Iteration      1(   6)  ---------------------------------------


    POTLOK:  cpu time      0.0136: real time      0.0137
    SETDIJ:  cpu time      0.0337: real time      0.0339
     EDDAV:  cpu time      0.2175: real time      0.2184
       DOS:  cpu time      0.0006: real time      0.0006
    CHARGE:  cpu time      0.2693: real time      0.2701
    MIXING:  cpu time      0.1191: real time      0.1215
    --------------------------------------------
      LOOP:  cpu time      0.6539: real time      0.6584

 eigenvalue-minimisations  :  1044
 total energy-change (2. order) :-0.2034994E-10  (-0.5056615E-12)
 number of electron     512.0000252 magnetization 
 augmentation part      -29.3556444 magnetization 

 Broyden mixing:
  rms(total) = 0.11090E-06    rms(broyden)= 0.11090E-06
  rms(prec ) = 0.11108E-06
  weight for this iteration     100.00

 eigenvalues of (default mixing * dielectric matrix)
  average eigenvalue GAMMA=   1.0892
  1.5853  1.5853  1.2056  0.9378  0.1319

 Free energy of the ion-electron system (eV)
  ---------------------------------------------------
  alpha Z        PSCENC =       215.30542483
  Ewald energy   TEWEN  =    -14628.06963411
  -Hartree energ DENC   =      -955.50615874
  -exchange      EXHF   =         0.00000000
  -V(xc)+E(xc)   XCENC  =     -1149.43423167
  PAW double counting   =     55501.73808110   -53264.15728854
  entropy T*S    EENTRO =        -0.00000000
  eigenvalues    EBANDS =       393.80543275
  atomic energy  EATOM  =     13192.41551723
  Solvation  Ediel_sol  =         0.00000000
  ---------------------------------------------------
  free energy    TOTEN  =      -693.90285716 eV

  energy without entropy =     -693.90285716  energy(sigma->0) =     -693.90285716


--------------------------------------------------------------------------------------------------------




--------------------------------------- Iteration      1(   7)  ---------------------------------------


    POTLOK:  cpu time      0.0155: real time      0.0156
    SETDIJ:  cpu time      0.0330: real time      0.0331
     EDDAV:  cpu time      0.2177: real time      0.2186
       DOS:  cpu time      0.0012: real time      0.0012
    CHARGE:  cpu time      0.2690: real time      0.2699
    MIXING:  cpu time      0.3239: real time      0.3268
    --------------------------------------------
      LOOP:  cpu time      0.8602: real time      0.8652

 eigenvalue-minimisations  :  1044
 total energy-change (2. order) :-0.4558842E-10  (-0.2061728E-12)
 number of electron     512.0000252 magnetization 
 augmentation part      -29.3556444 magnetization 

 Broyden mixing:
  rms(total) = 0.60370E-07    rms(broyden)= 0.60370E-07
  rms(prec ) = 0.60610E-07
  weight for this iteration     100.00

 eigenvalues of (default mixing * dielectric matrix)
  average eigenvalue GAMMA=   0.9677
  1.5495  1.5495  1.1800  1.0066  0.2604  0.2604

 Free energy of the ion-electron system (eV)
  ---------------------------------------------------
  alpha Z        PSCENC =       215.30542483
  Ewald energy   TEWEN  =    -14628.06963411
  -Hartree energ DENC   =      -955.50615832
  -exchange      EXHF   =         0.00000000
  -V(xc)+E(xc)   XCENC  =     -1149.43423175
  PAW double counting   =     55501.73743724   -53264.15664467
  entropy T*S    EENTRO =        -0.00000000
  eigenvalues    EBANDS =       393.80543239
  atomic energy  EATOM  =     13192.41551723
  Solvation  Ediel_sol  =         0.00000000
  ---------------------------------------------------
  free energy    TOTEN  =      -693.90285716 eV

  energy without entropy =     -693.90285716  energy(sigma->0) =     -693.90285716


--------------------------------------------------------------------------------------------------------




--------------------------------------- Iteration      1(   8)  ---------------------------------------


    POTLOK:  cpu time      0.0161: real time      0.0161
    SETDIJ:  cpu time      0.0326: real time      0.0327
     EDDAV:  cpu time      0.2176: real time      0.2186
       DOS:  cpu time      0.0011: real time      0.0011
    CHARGE:  cpu time      0.2735: real time      0.2744
    MIXING:  cpu time      0.1202: real time      0.1226
    --------------------------------------------
      LOOP:  cpu time      0.6610: real time      0.6655

 eigenvalue-minimisations  :  1043
 total energy-change (2. order) : 0.9538326E-10  (-0.1113692E-14)
 number of electron     512.0000252 magnetization 
 augmentation part      -29.3556444 magnetization 

 Broyden mixing:
  rms(total) = 0.28076E-07    rms(broyden)= 0.28076E-07
  rms(prec ) = 0.28130E-07
  weight for this iteration     100.00

 eigenvalues of (default mixing * dielectric matrix)
  average eigenvalue GAMMA=   1.2230
  2.1756  2.1756  1.1945  1.1945  0.7148  0.7148  0.3911

 Free energy of the ion-electron system (eV)
  ---------------------------------------------------
  alpha Z        PSCENC =       215.30542483
  Ewald energy   TEWEN  =    -14628.06963411
  -Hartree energ DENC   =      -955.50615722
  -exchange      EXHF   =         0.00000000
  -V(xc)+E(xc)   XCENC  =     -1149.43423190
  PAW double counting   =     55501.73652278   -53264.15573016
  entropy T*S    EENTRO =        -0.00000000
  eigenvalues    EBANDS =       393.80543140
  atomic energy  EATOM  =     13192.41551723
  Solvation  Ediel_sol  =         0.00000000
  ---------------------------------------------------
  free energy    TOTEN  =      -693.90285716 eV

  energy without entropy =     -693.90285716  energy(sigma->0) =     -693.90285716


--------------------------------------------------------------------------------------------------------




--------------------------------------- Iteration      1(   9)  ---------------------------------------


    POTLOK:  cpu time      0.0143: real time      0.0144
    SETDIJ:  cpu time      0.0330: real time      0.0332
     EDDAV:  cpu time      0.2210: real time      0.2218
       DOS:  cpu time      0.0004: real time      0.0004
    CHARGE:  cpu time      0.2751: real time      0.2761
    MIXING:  cpu time      0.1203: real time      0.1227
    --------------------------------------------
      LOOP:  cpu time      0.6641: real time      0.6686

 eigenvalue-minimisations  :  1041
 total energy-change (2. order) :-0.7162271E-11  (-0.2373093E-12)
 number of electron     512.0000252 magnetization 
 augmentation part      -29.3556444 magnetization 

 Broyden mixing:
  rms(total) = 0.42096E-08    rms(broyden)= 0.42096E-08
  rms(prec ) = 0.44159E-08
  weight for this iteration     100.00

 eigenvalues of (default mixing * dielectric matrix)
  average eigenvalue GAMMA=   1.4587
  2.7688  2.7688  2.5009  0.9865  0.8263  0.8263  0.4961  0.4961

 Free energy of the ion-electron system (eV)
  ---------------------------------------------------
  alpha Z        PSCENC =       215.30542483
  Ewald energy   TEWEN  =    -14628.06963411
  -Hartree energ DENC   =      -955.50615753
  -exchange      EXHF   =         0.00000000
  -V(xc)+E(xc)   XCENC  =     -1149.43423186
  PAW double counting   =     55501.73676381   -53264.15597121
  entropy T*S    EENTRO =        -0.00000000
  eigenvalues    EBANDS =       393.80543168
  atomic energy  EATOM  =     13192.41551723
  Solvation  Ediel_sol  =         0.00000000
  ---------------------------------------------------
  free energy    TOTEN  =      -693.90285716 eV

  energy without entropy =     -693.90285716  energy(sigma->0) =     -693.90285716


--------------------------------------------------------------------------------------------------------




--------------------------------------- Iteration      1(  10)  ---------------------------------------


    POTLOK:  cpu time      0.0143: real time      0.0144
    SETDIJ:  cpu time      0.0333: real time      0.0334
     EDDAV:  cpu time      0.2204: real time      0.2213
       DOS:  cpu time      0.0004: real time      0.0004
    CHARGE:  cpu time      0.2702: real time      0.2710
    MIXING:  cpu time      0.1249: real time      0.1276
    --------------------------------------------
      LOOP:  cpu time      0.6635: real time      0.6682

 eigenvalue-minimisations  :  1041
 total energy-change (2. order) : 0.1557510E-10  (-0.2645341E-12)
 number of electron     512.0000252 magnetization 
 augmentation part      -29.3556444 magnetization 

 Broyden mixing:
  rms(total) = 0.73532E-08    rms(broyden)= 0.73532E-08
  rms(prec ) = 0.75112E-08
  weight for this iteration     100.00

 eigenvalues of (default mixing * dielectric matrix)
  average eigenvalue GAMMA=   1.2888
  2.5743  2.5743  2.5569  1.0182  0.8074  0.8074  0.5338  0.4739  0.2531

 Free energy of the ion-electron system (eV)
  ---------------------------------------------------
  alpha Z        PSCENC =       215.30542483
  Ewald energy   TEWEN  =    -14628.06963411
  -Hartree energ DENC   =      -955.50615753
  -exchange      EXHF   =         0.00000000
  -V(xc)+E(xc)   XCENC  =     -1149.43423186
  PAW double counting   =     55501.73675868   -53264.15596608
  entropy T*S    EENTRO =        -0.00000000
  eigenvalues    EBANDS =       393.80543168
  atomic energy  EATOM  =     13192.41551723
  Solvation  Ediel_sol  =         0.00000000
  ---------------------------------------------------
  free energy    TOTEN  =      -693.90285716 eV

  energy without entropy =     -693.90285716  energy(sigma->0) =     -693.90285716


--------------------------------------------------------------------------------------------------------




--------------------------------------- Iteration      1(  11)  ---------------------------------------


    POTLOK:  cpu time      0.0162: real time      0.0163
    SETDIJ:  cpu time      0.0335: real time      0.0337
     EDDAV:  cpu time      0.2209: real time      0.2219
       DOS:  cpu time      0.0004: real time      0.0004
    CHARGE:  cpu time      0.2690: real time      0.2698
    MIXING:  cpu time      0.1254: real time      0.1278
    --------------------------------------------
      LOOP:  cpu time      0.6654: real time      0.6700

 eigenvalue-minimisations  :  1041
 total energy-change (2. order) : 0.2046363E-11  (-0.2903493E-13)
 number of electron     512.0000252 magnetization 
 augmentation part      -29.3556444 magnetization 

 Broyden mixing:
  rms(total) = 0.86999E-08    rms(broyden)= 0.86999E-08
  rms(prec ) = 0.89754E-08
  weight for this iteration     100.00

 eigenvalues of (default mixing * dielectric matrix)
  average eigenvalue GAMMA=   1.6571
  4.1939  4.1939  2.6808  1.0489  1.0489  0.9941  0.6308  0.4594  0.6602  0.6602

 Free energy of the ion-electron system (eV)
  ---------------------------------------------------
  alpha Z        PSCENC =       215.30542483
  Ewald energy   TEWEN  =    -14628.06963411
  -Hartree energ DENC   =      -955.50615756
  -exchange      EXHF   =         0.00000000
  -V(xc)+E(xc)   XCENC  =     -1149.43423186
  PAW double counting   =     55501.73675362   -53264.15596102
  entropy T*S    EENTRO =        -0.00000000
  eigenvalues    EBANDS =       393.80543171
  atomic energy  EATOM  =     13192.41551723
  Solvation  Ediel_sol  =         0.00000000
  ---------------------------------------------------
  free energy    TOTEN  =      -693.90285716 eV

  energy without entropy =     -693.90285716  energy(sigma->0) =     -693.90285716


--------------------------------------------------------------------------------------------------------




--------------------------------------- Iteration      1(  12)  ---------------------------------------


    POTLOK:  cpu time      0.0147: real time      0.0147
    SETDIJ:  cpu time      0.0335: real time      0.0336
     EDDAV:  cpu time      0.2181: real time      0.2189
       DOS:  cpu time      0.0004: real time      0.0004
    CHARGE:  cpu time      0.2775: real time      0.2815
    MIXING:  cpu time      0.1362: real time      0.1388
    --------------------------------------------
      LOOP:  cpu time      0.6804: real time      0.6880

 eigenvalue-minimisations  :  1041
 total energy-change (2. order) : 0.3149125E-10  (-0.2520935E-12)
 number of electron     512.0000252 magnetization 
 augmentation part      -29.3556444 magnetization 

 Broyden mixing:
  rms(total) = 0.27850E-08    rms(broyden)= 0.27850E-08
  rms(prec ) = 0.32690E-08
  weight for this iteration     100.00

 eigenvalues of (default mixing * dielectric matrix)
  average eigenvalue GAMMA=   1.5219
  3.9351  3.9351  2.1477  1.2107  1.2107  1.2097  0.6748  0.6748  0.4605  0.6853
  0.5961

 Free energy of the ion-electron system (eV)
  ---------------------------------------------------
  alpha Z        PSCENC =       215.30542483
  Ewald energy   TEWEN  =    -14628.06963411
  -Hartree energ DENC   =      -955.50615744
  -exchange      EXHF   =         0.00000000
  -V(xc)+E(xc)   XCENC  =     -1149.43423187
  PAW double counting   =     55501.73665144   -53264.15585884
  entropy T*S    EENTRO =        -0.00000000
  eigenvalues    EBANDS =       393.80543160
  atomic energy  EATOM  =     13192.41551723
  Solvation  Ediel_sol  =         0.00000000
  ---------------------------------------------------
  free energy    TOTEN  =      -693.90285716 eV

  energy without entropy =     -693.90285716  energy(sigma->0) =     -693.90285716


--------------------------------------------------------------------------------------------------------




--------------------------------------- Iteration      1(  13)  ---------------------------------------


    POTLOK:  cpu time      0.0141: real time      0.0142
    SETDIJ:  cpu time      0.0357: real time      0.0359
     EDDAV:  cpu time      0.2185: real time      0.2195
       DOS:  cpu time      0.0007: real time      0.0007
    CHARGE:  cpu time      0.2764: real time      0.2773
    MIXING:  cpu time      0.1474: real time      0.1499
    --------------------------------------------
      LOOP:  cpu time      0.6928: real time      0.6976

 eigenvalue-minimisations  :  1041
 total energy-change (2. order) :-0.5218226E-10  ( 0.3008843E-12)
 number of electron     512.0000252 magnetization 
 augmentation part      -29.3556444 magnetization 

 Broyden mixing:
  rms(total) = 0.38892E-08    rms(broyden)= 0.38892E-08
  rms(prec ) = 0.40874E-08
  weight for this iteration     100.00

 eigenvalues of (default mixing * dielectric matrix)
  average eigenvalue GAMMA=   1.5129
  4.8022  3.5857  2.5061  1.1028  1.1028  1.0898  0.8018  0.8018  0.6332  0.4568
  0.6357  0.6357

 Free energy of the ion-electron system (eV)
  ---------------------------------------------------
  alpha Z        PSCENC =       215.30542483
  Ewald energy   TEWEN  =    -14628.06963411
  -Hartree energ DENC   =      -955.50615732
  -exchange      EXHF   =         0.00000000
  -V(xc)+E(xc)   XCENC  =     -1149.43423189
  PAW double counting   =     55501.73667746   -53264.15588485
  entropy T*S    EENTRO =        -0.00000000
  eigenvalues    EBANDS =       393.80543150
  atomic energy  EATOM  =     13192.41551723
  Solvation  Ediel_sol  =         0.00000000
  ---------------------------------------------------
  free energy    TOTEN  =      -693.90285716 eV

  energy without entropy =     -693.90285716  energy(sigma->0) =     -693.90285716


--------------------------------------------------------------------------------------------------------




--------------------------------------- Iteration      1(  14)  ---------------------------------------


    POTLOK:  cpu time      0.0151: real time      0.0151
    SETDIJ:  cpu time      0.0358: real time      0.0360
     EDDAV:  cpu time      0.2187: real time      0.2196
       DOS:  cpu time      0.0006: real time      0.0006
    CHARGE:  cpu time      0.2712: real time      0.2721
    MIXING:  cpu time      0.1501: real time      0.1525
    --------------------------------------------
      LOOP:  cpu time      0.6914: real time      0.6960

 eigenvalue-minimisations  :  1016
 total energy-change (2. order) : 0.8333245E-10  (-0.1118420E-12)
 number of electron     512.0000252 magnetization 
 augmentation part      -29.3556444 magnetization 

 Broyden mixing:
  rms(total) = 0.46872E-08    rms(broyden)= 0.46872E-08
  rms(prec ) = 0.48122E-08
  weight for this iteration     100.00

 eigenvalues of (default mixing * dielectric matrix)
  average eigenvalue GAMMA=   1.4771
  4.7562  3.9862  2.5082  1.1795  1.1795  1.0642  0.7039  0.7039  0.8315  0.8315
  0.6337  0.4567  0.3674

 Free energy of the ion-electron system (eV)
  ---------------------------------------------------
  alpha Z        PSCENC =       215.30542483
  Ewald energy   TEWEN  =    -14628.06963411
  -Hartree energ DENC   =      -955.50615728
  -exchange      EXHF   =         0.00000000
  -V(xc)+E(xc)   XCENC  =     -1149.43423189
  PAW double counting   =     55501.73668432   -53264.15589171
  entropy T*S    EENTRO =        -0.00000000
  eigenvalues    EBANDS =       393.80543145
  atomic energy  EATOM  =     13192.41551723
  Solvation  Ediel_sol  =         0.00000000
  ---------------------------------------------------
  free energy    TOTEN  =      -693.90285716 eV

  energy without entropy =     -693.90285716  energy(sigma->0) =     -693.90285716


--------------------------------------------------------------------------------------------------------




--------------------------------------- Iteration      1(  15)  ---------------------------------------


    POTLOK:  cpu time      0.0138: real time      0.0139
    SETDIJ:  cpu time      0.0362: real time      0.0363
     EDDAV:  cpu time      0.2186: real time      0.2195
       DOS:  cpu time      0.0010: real time      0.0010
    CHARGE:  cpu time      0.2704: real time      0.2713
    MIXING:  cpu time      0.1581: real time      0.1608
    --------------------------------------------
      LOOP:  cpu time      0.6981: real time      0.7028

 eigenvalue-minimisations  :  1014
 total energy-change (2. order) :-0.2648903E-10  ( 0.2982727E-12)
 number of electron     512.0000252 magnetization 
 augmentation part      -29.3556444 magnetization 

 Broyden mixing:
  rms(total) = 0.40875E-08    rms(broyden)= 0.40875E-08
  rms(prec ) = 0.42302E-08
  weight for this iteration     100.00

 eigenvalues of (default mixing * dielectric matrix)
  average eigenvalue GAMMA=   1.3874
  4.6968  3.9787  2.5005  1.2043  1.2043  1.0581  0.6939  0.6939  0.8373  0.8373
  0.6327  0.4570  0.2318  0.3975

 Free energy of the ion-electron system (eV)
  ---------------------------------------------------
  alpha Z        PSCENC =       215.30542483
  Ewald energy   TEWEN  =    -14628.06963411
  -Hartree energ DENC   =      -955.50615726
  -exchange      EXHF   =         0.00000000
  -V(xc)+E(xc)   XCENC  =     -1149.43423189
  PAW double counting   =     55501.73667349   -53264.15588089
  entropy T*S    EENTRO =        -0.00000000
  eigenvalues    EBANDS =       393.80543144
  atomic energy  EATOM  =     13192.41551723
  Solvation  Ediel_sol  =         0.00000000
  ---------------------------------------------------
  free energy    TOTEN  =      -693.90285716 eV

  energy without entropy =     -693.90285716  energy(sigma->0) =     -693.90285716


--------------------------------------------------------------------------------------------------------




--------------------------------------- Iteration      1(  16)  ---------------------------------------


    POTLOK:  cpu time      0.0144: real time      0.0144
    SETDIJ:  cpu time      0.0363: real time      0.0365
     EDDAV:  cpu time      0.2182: real time      0.2191
       DOS:  cpu time      0.0004: real time      0.0004
    CHARGE:  cpu time      0.2705: real time      0.2714
    MIXING:  cpu time      0.1639: real time      0.1666
    --------------------------------------------
      LOOP:  cpu time      0.7037: real time      0.7083

 eigenvalue-minimisations  :  1014
 total energy-change (2. order) :-0.1341505E-10  (-0.3367306E-12)
 number of electron     512.0000252 magnetization 
 augmentation part      -29.3556444 magnetization 

 Broyden mixing:
  rms(total) = 0.43176E-08    rms(broyden)= 0.43176E-08
  rms(prec ) = 0.44919E-08
  weight for this iteration     100.00

 eigenvalues of (default mixing * dielectric matrix)
  average eigenvalue GAMMA=   1.3854
  5.1420  3.6733  2.6320  1.1505  1.1505  1.0285  0.7523  0.7523  0.8029  0.8029
  0.7760  0.6229  0.4573  0.5187  0.5187

 Free energy of the ion-electron system (eV)
  ---------------------------------------------------
  alpha Z        PSCENC =       215.30542483
  Ewald energy   TEWEN  =    -14628.06963411
  -Hartree energ DENC   =      -955.50615726
  -exchange      EXHF   =         0.00000000
  -V(xc)+E(xc)   XCENC  =     -1149.43423189
  PAW double counting   =     55501.73667438   -53264.15588177
  entropy T*S    EENTRO =        -0.00000000
  eigenvalues    EBANDS =       393.80543144
  atomic energy  EATOM  =     13192.41551723
  Solvation  Ediel_sol  =         0.00000000
  ---------------------------------------------------
  free energy    TOTEN  =      -693.90285716 eV

  energy without entropy =     -693.90285716  energy(sigma->0) =     -693.90285716


--------------------------------------------------------------------------------------------------------




--------------------------------------- Iteration      1(  17)  ---------------------------------------


    POTLOK:  cpu time      0.0163: real time      0.0165
    SETDIJ:  cpu time      0.0333: real time      0.0334
     EDDAV:  cpu time      0.2196: real time      0.2205
       DOS:  cpu time      0.0009: real time      0.0009
    CHARGE:  cpu time      0.2787: real time      0.2796
    MIXING:  cpu time      0.1539: real time      0.1564
    --------------------------------------------
      LOOP:  cpu time      0.7027: real time      0.7073

 eigenvalue-minimisations  :  1014
 total energy-change (2. order) : 0.1273293E-10  ( 0.8721756E-13)
 number of electron     512.0000252 magnetization 
 augmentation part      -29.3556444 magnetization 

 Broyden mixing:
  rms(total) = 0.28647E-08    rms(broyden)= 0.28647E-08
  rms(prec ) = 0.31180E-08
  weight for this iteration     100.00

 eigenvalues of (default mixing * dielectric matrix)
  average eigenvalue GAMMA=   1.3909
  5.5058  2.9707  2.9707  1.3589  1.3589  1.1441  1.1441  0.8533  0.8533  0.7028
  0.7028  0.6254  0.4575  0.6228  0.6228  0.3607

 Free energy of the ion-electron system (eV)
  ---------------------------------------------------
  alpha Z        PSCENC =       215.30542483
  Ewald energy   TEWEN  =    -14628.06963411
  -Hartree energ DENC   =      -955.50615726
  -exchange      EXHF   =         0.00000000
  -V(xc)+E(xc)   XCENC  =     -1149.43423189
  PAW double counting   =     55501.73665706   -53264.15586446
  entropy T*S    EENTRO =        -0.00000000
  eigenvalues    EBANDS =       393.80543144
  atomic energy  EATOM  =     13192.41551723
  Solvation  Ediel_sol  =         0.00000000
  ---------------------------------------------------
  free energy    TOTEN  =      -693.90285716 eV

  energy without entropy =     -693.90285716  energy(sigma->0) =     -693.90285716


--------------------------------------------------------------------------------------------------------




--------------------------------------- Iteration      1(  18)  ---------------------------------------


    POTLOK:  cpu time      0.0166: real time      0.0167
    SETDIJ:  cpu time      0.0352: real time      0.0354
     EDDAV:  cpu time      0.2194: real time      0.2204
       DOS:  cpu time      0.0006: real time      0.0006
    CHARGE:  cpu time      0.2725: real time      0.2735
    MIXING:  cpu time      0.1575: real time      0.1601
    --------------------------------------------
      LOOP:  cpu time      0.7018: real time      0.7066

 eigenvalue-minimisations  :  1014
 total energy-change (2. order) :-0.8446932E-10  ( 0.5894330E-13)
 number of electron     512.0000252 magnetization 
 augmentation part      -29.3556444 magnetization 

 Broyden mixing:
  rms(total) = 0.22223E-08    rms(broyden)= 0.22223E-08
  rms(prec ) = 0.25413E-08
  weight for this iteration     100.00

 eigenvalues of (default mixing * dielectric matrix)
  average eigenvalue GAMMA=   1.3353
  5.5412  2.9706  2.9706  1.3994  1.3994  1.1378  1.1378  0.8553  0.8553  0.7102
  0.7102  0.6261  0.6253  0.6253  0.4574  0.3386  0.3386

 Free energy of the ion-electron system (eV)
  ---------------------------------------------------
  alpha Z        PSCENC =       215.30542483
  Ewald energy   TEWEN  =    -14628.06963411
  -Hartree energ DENC   =      -955.50615726
  -exchange      EXHF   =         0.00000000
  -V(xc)+E(xc)   XCENC  =     -1149.43423189
  PAW double counting   =     55501.73664866   -53264.15585605
  entropy T*S    EENTRO =        -0.00000000
  eigenvalues    EBANDS =       393.80543144
  atomic energy  EATOM  =     13192.41551723
  Solvation  Ediel_sol  =         0.00000000
  ---------------------------------------------------
  free energy    TOTEN  =      -693.90285716 eV

  energy without entropy =     -693.90285716  energy(sigma->0) =     -693.90285716


--------------------------------------------------------------------------------------------------------




--------------------------------------- Iteration      1(  19)  ---------------------------------------


    POTLOK:  cpu time      0.0158: real time      0.0159
    SETDIJ:  cpu time      0.0343: real time      0.0345
     EDDAV:  cpu time      0.2189: real time      0.2197
       DOS:  cpu time      0.0004: real time      0.0004
    CHARGE:  cpu time      0.2723: real time      0.2731
    MIXING:  cpu time      0.1627: real time      0.1658
    --------------------------------------------
      LOOP:  cpu time      0.7043: real time      0.7094

 eigenvalue-minimisations  :  1014
 total energy-change (2. order) : 0.1042508E-09  (-0.2420937E-12)
 number of electron     512.0000252 magnetization 
 augmentation part      -29.3556444 magnetization 

 Broyden mixing:
  rms(total) = 0.16241E-08    rms(broyden)= 0.16241E-08
  rms(prec ) = 0.19403E-08
  weight for this iteration     100.00

 eigenvalues of (default mixing * dielectric matrix)
  average eigenvalue GAMMA=   1.5740
  6.6850  4.1694  2.9352  2.0516  2.0516  1.2286  1.2286  0.9858  0.9858  0.9085
  0.9085  0.6603  0.6603  0.6105  0.6105  0.4572  0.6271  0.5673

 Free energy of the ion-electron system (eV)
  ---------------------------------------------------
  alpha Z        PSCENC =       215.30542483
  Ewald energy   TEWEN  =    -14628.06963411
  -Hartree energ DENC   =      -955.50615724
  -exchange      EXHF   =         0.00000000
  -V(xc)+E(xc)   XCENC  =     -1149.43423190
  PAW double counting   =     55501.73663281   -53264.15584021
  entropy T*S    EENTRO =        -0.00000000
  eigenvalues    EBANDS =       393.80543142
  atomic energy  EATOM  =     13192.41551723
  Solvation  Ediel_sol  =         0.00000000
  ---------------------------------------------------
  free energy    TOTEN  =      -693.90285716 eV

  energy without entropy =     -693.90285716  energy(sigma->0) =     -693.90285716


--------------------------------------------------------------------------------------------------------




--------------------------------------- Iteration      1(  20)  ---------------------------------------


    POTLOK:  cpu time      0.0148: real time      0.0149
    SETDIJ:  cpu time      0.0345: real time      0.0346
     EDDAV:  cpu time      0.2158: real time      0.2167
       DOS:  cpu time      0.0004: real time      0.0004
    --------------------------------------------
      LOOP:  cpu time      0.2656: real time      0.2667

 eigenvalue-minimisations  :  1006
 total energy-change (2. order) :-0.1159606E-10  (-0.1634049E-12)
 number of electron     512.0000252 magnetization 
 augmentation part      -29.3556444 magnetization 

 Free energy of the ion-electron system (eV)
  ---------------------------------------------------
  alpha Z        PSCENC =       215.30542483
  Ewald energy   TEWEN  =    -14628.06963411
  -Hartree energ DENC   =      -955.50615722
  -exchange      EXHF   =         0.00000000
  -V(xc)+E(xc)   XCENC  =     -1149.43423190
  PAW double counting   =     55501.73662819   -53264.15583558
  entropy T*S    EENTRO =        -0.00000000
  eigenvalues    EBANDS =       393.80543140
  atomic energy  EATOM  =     13192.41551723
  Solvation  Ediel_sol  =         0.00000000
  ---------------------------------------------------
  free energy    TOTEN  =      -693.90285716 eV

  energy without entropy =     -693.90285716  energy(sigma->0) =     -693.90285716


--------------------------------------------------------------------------------------------------------




 average (electrostatic) potential at core
  the test charge radii are     0.9892
  (the norm of the test charge is              1.0000)
       1 -83.2415       2 -83.2415       3 -83.2415       4 -83.2415       5 -83.2415
       6 -83.2415       7 -83.2415       8 -83.2415       9 -83.2415      10 -83.2415
      11 -83.2415      12 -83.2415      13 -83.2415      14 -83.2415      15 -83.2415
      16 -83.2415      17 -83.2415      18 -83.2415      19 -83.2415      20 -83.2415
      21 -83.2415      22 -83.2415      23 -83.2415      24 -83.2415      25 -83.2415
      26 -83.2415      27 -83.2415      28 -83.2415      29 -83.2415      30 -83.2415
      31 -83.2415      32 -83.2415      33 -83.2415      34 -83.2415      35 -83.2415
      36 -83.2415      37 -83.2415      38 -83.2415      39 -83.2415      40 -83.2415
      41 -83.2415      42 -83.2415      43 -83.2415      44 -83.2415      45 -83.2415
      46 -83.2415      47 -83.2415      48 -83.2415      49 -83.2415      50 -83.2415
      51 -83.2415      52 -83.2415      53 -83.2415      54 -83.2415      55 -83.2415
      56 -83.2415      57 -83.2415      58 -83.2415      59 -83.2415      60 -83.2415
      61 -83.2415      62 -83.2415      63 -83.2415      64 -83.2415      65 -83.2415
      66 -83.2415      67 -83.2415      68 -83.2415      69 -83.2415      70 -83.2415
      71 -83.2415      72 -83.2415      73 -83.2415      74 -83.2415      75 -83.2415
      76 -83.2415      77 -83.2415      78 -83.2415      79 -83.2415      80 -83.2415
      81 -83.2415      82 -83.2415      83 -83.2415      84 -83.2415      85 -83.2415
      86 -83.2415      87 -83.2415      88 -83.2415      89 -83.2415      90 -83.2415
      91 -83.2415      92 -83.2415      93 -83.2415      94 -83.2415      95 -83.2415
      96 -83.2415      97 -83.2415      98 -83.2415      99 -83.2415     100 -83.2415
     101 -83.2415     102 -83.2415     103 -83.2415     104 -83.2415     105 -83.2415
     106 -83.2415     107 -83.2415     108 -83.2415     109 -83.2415     110 -83.2415
     111 -83.2415     112 -83.2415     113 -83.2415     114 -83.2415     115 -83.2415
     116 -83.2415     117 -83.2415     118 -83.2415     119 -83.2415     120 -83.2415
     121 -83.2415     122 -83.2415     123 -83.2415     124 -83.2415     125 -83.2415
     126 -83.2415     127 -83.2415     128 -83.2415
 
 
 
 E-fermi :   6.0707     XC(G=0):  -9.4097     alpha+bet :-11.9845

 val. band max:        5.8312908965   @ k =   0.0000   0.0000   0.0000
 cond. band min:       6.4470997085   @ k =   0.5000   0.5000   0.0000
 fundamental gap:      0.6158088120
 Fermi energy:         6.0706520948

 k-point     1 :       0.0000    0.0000    0.0000
  band No.  band energies     occupation 
      1      -6.1295      2.00000
      2      -5.3295      2.00000
      3      -5.3295      2.00000
      4      -5.3295      2.00000
      5      -5.3295      2.00000
      6      -5.3295      2.00000
      7      -5.3295      2.00000
      8      -5.3295      2.00000
      9      -5.3295      2.00000
     10      -5.0471      2.00000
     11      -5.0471      2.00000
     12      -5.0471      2.00000
     13      -5.0471      2.00000
     14      -5.0471      2.00000
     15      -5.0471      2.00000
     16      -4.0848      2.00000
     17      -4.0848      2.00000
     18      -4.0848      2.00000
     19      -4.0848      2.00000
     20      -4.0848      2.00000
     21      -4.0848      2.00000
     22      -4.0848      2.00000
     23      -4.0848      2.00000
     24      -4.0848      2.00000
     25      -4.0848      2.00000
     26      -4.0848      2.00000
     27      -4.0848      2.00000
     28      -3.7971      2.00000
     29      -3.7971      2.00000
     30      -3.7971      2.00000
     31      -3.7971      2.00000
     32      -3.4103      2.00000
     33      -3.4103      2.00000
     34      -3.4103      2.00000
     35      -3.4103      2.00000
     36      -3.4103      2.00000
     37      -3.4103      2.00000
     38      -3.4103      2.00000
     39      -3.4103      2.00000
     40      -3.4103      2.00000
     41      -3.4103      2.00000
     42      -3.4103      2.00000
     43      -3.4103      2.00000
     44      -3.4103      2.00000
     45      -3.4103      2.00000
     46      -3.4103      2.00000
     47      -3.4103      2.00000
     48      -3.4103      2.00000
     49      -3.4103      2.00000
     50      -3.4103      2.00000
     51      -3.4103      2.00000
     52      -3.4103      2.00000
     53      -3.4103      2.00000
     54      -3.4103      2.00000
     55      -3.4103      2.00000
     56      -1.9835      2.00000
     57      -1.9835      2.00000
     58      -1.9835      2.00000
     59      -1.9835      2.00000
     60      -1.9835      2.00000
     61      -1.9835      2.00000
     62      -1.8194      2.00000
     63      -1.8194      2.00000
     64      -1.8194      2.00000
     65      -1.8194      2.00000
     66      -1.8194      2.00000
     67      -1.8194      2.00000
     68      -1.8194      2.00000
     69      -1.8194      2.00000
     70      -1.8194      2.00000
     71      -1.8194      2.00000
     72      -1.8194      2.00000
     73      -1.8194      2.00000
     74      -1.1367      2.00000
     75      -1.1367      2.00000
     76      -1.1367      2.00000
     77      -1.1367      2.00000
     78      -0.5491      2.00000
     79      -0.5491      2.00000
     80      -0.5491      2.00000
     81      -0.5491      2.00000
     82      -0.5491      2.00000
     83      -0.5491      2.00000
     84      -0.5491      2.00000
     85      -0.5491      2.00000
     86      -0.5491      2.00000
     87      -0.5491      2.00000
     88      -0.5491      2.00000
     89      -0.5491      2.00000
     90      -0.5491      2.00000
     91      -0.5491      2.00000
     92      -0.5491      2.00000
     93      -0.5491      2.00000
     94      -0.5491      2.00000
     95      -0.5491      2.00000
     96      -0.5491      2.00000
     97      -0.5491      2.00000
     98      -0.5491      2.00000
     99      -0.5491      2.00000
    100      -0.5491      2.00000
    101      -0.5491      2.00000
    102       0.3536      2.00000
    103       0.3536      2.00000
    104       0.3536      2.00000
    105       0.3536      2.00000
    106       0.3536      2.00000
    107       0.3536      2.00000
    108       0.3536      2.00000
    109       0.3536      2.00000
    110       0.3536      2.00000
    111       0.3536      2.00000
    112       0.3536      2.00000
    113       0.3536      2.00000
    114       1.9063      2.00000
    115       1.9063      2.00000
    116       1.9063      2.00000
    117       1.9063      2.00000
    118       1.9063      2.00000
    119       1.9063      2.00000
    120       1.9063      2.00000
    121       1.9063      2.00000
    122       1.9800      2.00000
    123       1.9800      2.00000
    124       1.9800      2.00000
    125       1.9800      2.00000
    126       1.9800      2.00000
    127       1.9800      2.00000
    128       1.9800      2.00000
    129       1.9800      2.00000
    130       1.9800      2.00000
    131       1.9800      2.00000
    132       1.9800      2.00000
    133       1.9800      2.00000
    134       2.0801      2.00000
    135       2.0801      2.00000
    136       2.0801      2.00000
    137       2.0801      2.00000
    138       2.0801      2.00000
    139       2.0801      2.00000
    140       2.0801      2.00000
    141       2.0801      2.00000
    142       2.0801      2.00000
    143       2.0801      2.00000
    144       2.0801      2.00000
    145       2.0801      2.00000
    146       2.2987      2.00000
    147       2.2987      2.00000
    148       2.2987      2.00000
    149       2.2987      2.00000
    150       2.2987      2.00000
    151       2.2987      2.00000
    152       2.2987      2.00000
    153       2.2987      2.00000
    154       2.2987      2.00000
    155       2.2987      2.00000
    156       2.2987      2.00000
    157       2.2987      2.00000
    158       2.2987      2.00000
    159       2.2987      2.00000
    160       2.2987      2.00000
    161       2.2987      2.00000
    162       2.2987      2.00000
    163       2.2987      2.00000
    164       2.2987      2.00000
    165       2.2987      2.00000
    166       2.2987      2.00000
    167       2.2987      2.00000
    168       2.2987      2.00000
    169       2.2987      2.00000
    170       2.3173      2.00000
    171       2.3173      2.00000
    172       2.3173      2.00000
    173       2.3173      2.00000
    174       2.3173      2.00000
    175       2.3173      2.00000
    176       2.9809      2.00000
    177       2.9809      2.00000
    178       2.9809      2.00000
    179       2.9809      2.00000
    180       2.9809      2.00000
    181       2.9809      2.00000
    182       3.6280      2.00000
    183       3.6280      2.00000
    184       3.6280      2.00000
    185       3.6280      2.00000
    186       3.6280      2.00000
    187       3.6280      2.00000
    188       3.6280      2.00000
    189       3.6280      2.00000
    190       3.6280      2.00000
    191       3.6280      2.00000
    192       3.6280      2.00000
    193       3.6280      2.00000
    194       3.6280      2.00000
    195       3.6280      2.00000
    196       3.6280      2.00000
    197       3.6280      2.00000
    198       3.6280      2.00000
    199       3.6280      2.00000
    200       3.6280      2.00000
    201       3.6280      2.00000
    202       3.6280      2.00000
    203       3.6280      2.00000
    204       3.6280      2.00000
    205       3.6280      2.00000
    206       3.9427      2.00000
    207       3.9427      2.00000
    208       3.9427      2.00000
    209       3.9427      2.00000
    210       3.9427      2.00000
    211       3.9427      2.00000
    212       3.9427      2.00000
    213       3.9427      2.00000
    214       3.9427      2.00000
    215       3.9427      2.00000
    216       3.9427      2.00000
    217       3.9427      2.00000
    218       4.5048      2.00000
    219       4.5048      2.00000
    220       4.5048      2.00000
    221       4.5048      2.00000
    222       4.5048      2.00000
    223       4.5048      2.00000
    224       4.5048      2.00000
    225       4.5048      2.00000
    226       4.5048      2.00000
    227       4.5048      2.00000
    228       4.5048      2.00000
    229       4.5048      2.00000
    230       4.6339      2.00000
    231       4.6339      2.00000
    232       4.6339      2.00000
    233       4.6339      2.00000
    234       4.6339      2.00000
    235       4.6339      2.00000
    236       4.6339      2.00000
    237       4.6339      2.00000
    238       5.0724      2.00000
    239       5.0724      2.00000
    240       5.0724      2.00000
    241       5.0724      2.00000
    242       5.0724      2.00000
    243       5.0724      2.00000
    244       5.0724      2.00000
    245       5.0724      2.00000
    246       5.0724      2.00000
    247       5.0724      2.00000
    248       5.0724      2.00000
    249       5.0724      2.00000
    250       5.0724      2.00000
    251       5.0724      2.00000
    252       5.0724      2.00000
    253       5.0724      2.00000
    254       5.8313      2.00000
    255       5.8313      2.00000
    256       5.8313      2.00000
    257       6.5411      0.00000
    258       6.5411      0.00000
    259       6.5411      0.00000
    260       6.5411      0.00000
    261       6.5411      0.00000
    262       6.5411      0.00000
    263       6.9627      0.00000
    264       6.9627      0.00000
    265       6.9627      0.00000
    266       6.9627      0.00000
    267       6.9627      0.00000
    268       6.9627      0.00000
    269       7.3520      0.00000
    270       7.3520      0.00000
    271       7.3520      0.00000
    272       7.3520      0.00000
    273       7.3520      0.00000
    274       7.3520      0.00000
    275       7.3520      0.00000
    276       7.3520      0.00000
    277       7.3520      0.00000
    278       7.3520      0.00000
    279       7.3520      0.00000
    280       7.3520      0.00000
    281       7.3520      0.00000
    282       7.3520      0.00000
    283       7.3520      0.00000
    284       7.3520      0.00000
    285       7.3520      0.00000
    286       7.3520      0.00000
    287       7.3520      0.00000
    288       7.3520      0.00000
    289       7.3520      0.00000
    290       7.3520      0.00000
    291       7.3520      0.00000
    292       7.3520      0.00000
    293       7.3736      0.00000
    294       7.3736      0.00000
    295       7.3736      0.00000
    296       7.3736      0.00000
    297       7.8648      0.00000
    298       7.8648      0.00000
    299       7.8648      0.00000
    300       7.8648      0.00000
    301       7.8648      0.00000
    302       7.8648      0.00000
    303       7.8648      0.00000
    304       7.8648      0.00000
    305       8.2833      0.00000
    306       8.2833      0.00000
    307       8.2833      0.00000
    308       8.2833      0.00000
    309       8.2833      0.00000
    310       8.2833      0.00000
    311       8.2833      0.00000
    312       8.2833      0.00000
    313       8.2833      0.00000
    314       8.2833      0.00000
    315       8.2833      0.00000
    316       8.2833      0.00000
    317       8.3968      0.00000
    318       8.3968      0.00000
    319       8.3968      0.00000
    320       8.9654      0.00000
    321       8.9654      0.00000

 k-point     2 :       0.5000    0.0000    0.0000
  band No.  band energies     occupation 
      1      -5.9253      2.00000
      2      -5.9253      2.00000
      3      -5.3876      2.00000
      4      -5.3876      2.00000
      5      -5.3876      2.00000
      6      -5.3876      2.00000
      7      -5.3876      2.00000
      8      -5.3876      2.00000
      9      -4.8787      2.00000
     10      -4.8787      2.00000
     11      -4.8787      2.00000
     12      -4.8787      2.00000
     13      -4.8787      2.00000
     14      -4.8787      2.00000
     15      -4.4353      2.00000
     16      -4.4353      2.00000
     17      -4.3367      2.00000
     18      -4.3367      2.00000
     19      -4.3367      2.00000
     20      -4.3367      2.00000
     21      -4.3367      2.00000
     22      -4.3367      2.00000
     23      -3.9108      2.00000
     24      -3.9108      2.00000
     25      -3.9108      2.00000
     26      -3.9108      2.00000
     27      -3.9108      2.00000
     28      -3.9108      2.00000
     29      -3.9108      2.00000
     30      -3.9108      2.00000
     31      -3.9108      2.00000
     32      -3.9108      2.00000
     33      -3.9108      2.00000
     34      -3.9108      2.00000
     35      -3.7104      2.00000
     36      -3.7104      2.00000
     37      -3.7104      2.00000
     38      -3.7104      2.00000
     39      -3.7104      2.00000
     40      -3.7104      2.00000
     41      -3.2059      2.00000
     42      -3.2059      2.00000
     43      -3.2059      2.00000
     44      -3.2059      2.00000
     45      -3.2059      2.00000
     46      -3.2059      2.00000
     47      -2.8363      2.00000
     48      -2.8363      2.00000
     49      -2.8363      2.00000
     50      -2.8363      2.00000
     51      -2.8363      2.00000
     52      -2.8363      2.00000
     53      -2.6601      2.00000
     54      -2.6601      2.00000
     55      -2.6601      2.00000
     56      -2.6601      2.00000
     57      -2.6601      2.00000
     58      -2.6601      2.00000
     59      -2.6601      2.00000
     60      -2.6601      2.00000
     61      -2.6601      2.00000
     62      -2.6601      2.00000
     63      -2.6601      2.00000
     64      -2.6601      2.00000
     65      -1.0985      2.00000
     66      -1.0985      2.00000
     67      -1.0985      2.00000
     68      -1.0985      2.00000
     69      -1.0985      2.00000
     70      -1.0985      2.00000
     71      -1.0985      2.00000
     72      -1.0985      2.00000
     73      -1.0985      2.00000
     74      -1.0985      2.00000
     75      -1.0985      2.00000
     76      -1.0985      2.00000
     77      -0.9965      2.00000
     78      -0.9965      2.00000
     79      -0.9965      2.00000
     80      -0.9965      2.00000
     81      -0.9965      2.00000
     82      -0.9965      2.00000
     83      -0.9151      2.00000
     84      -0.9151      2.00000
     85      -0.9151      2.00000
     86      -0.9151      2.00000
     87      -0.9151      2.00000
     88      -0.9151      2.00000
     89      -0.8077      2.00000
     90      -0.8077      2.00000
     91      -0.8077      2.00000
     92      -0.8077      2.00000
     93      -0.8077      2.00000
     94      -0.8077      2.00000
     95      -0.1140      2.00000
     96      -0.1140      2.00000
     97      -0.0078      2.00000
     98      -0.0078      2.00000
     99      -0.0078      2.00000
    100      -0.0078      2.00000
    101      -0.0078      2.00000
    102      -0.0078      2.00000
    103      -0.0078      2.00000
    104      -0.0078      2.00000
    105      -0.0078      2.00000
    106      -0.0078      2.00000
    107      -0.0078      2.00000
    108      -0.0078      2.00000
    109       0.8934      2.00000
    110       0.8934      2.00000
    111       0.8934      2.00000
    112       0.8934      2.00000
    113       0.8934      2.00000
    114       0.8934      2.00000
    115       1.2081      2.00000
    116       1.2081      2.00000
    117       1.2081      2.00000
    118       1.2081      2.00000
    119       1.2081      2.00000
    120       1.2081      2.00000
    121       1.7723      2.00000
    122       1.7723      2.00000
    123       1.7723      2.00000
    124       1.7723      2.00000
    125       1.7723      2.00000
    126       1.7723      2.00000
    127       1.7723      2.00000
    128       1.7723      2.00000
    129       1.7723      2.00000
    130       1.7723      2.00000
    131       1.7723      2.00000
    132       1.7723      2.00000
    133       1.8401      2.00000
    134       1.8401      2.00000
    135       1.8401      2.00000
    136       1.8401      2.00000
    137       1.8401      2.00000
    138       1.8401      2.00000
    139       2.3971      2.00000
    140       2.3971      2.00000
    141       2.3971      2.00000
    142       2.3971      2.00000
    143       2.3971      2.00000
    144       2.3971      2.00000
    145       2.5120      2.00000
    146       2.5120      2.00000
    147       2.5120      2.00000
    148       2.5120      2.00000
    149       2.5120      2.00000
    150       2.5120      2.00000
    151       2.5120      2.00000
    152       2.5120      2.00000
    153       2.5120      2.00000
    154       2.5120      2.00000
    155       2.5120      2.00000
    156       2.5120      2.00000
    157       2.6096      2.00000
    158       2.6096      2.00000
    159       2.6096      2.00000
    160       2.6096      2.00000
    161       2.6096      2.00000
    162       2.6096      2.00000
    163       2.8728      2.00000
    164       2.8728      2.00000
    165       2.8728      2.00000
    166       2.8728      2.00000
    167       2.8728      2.00000
    168       2.8728      2.00000
    169       2.8728      2.00000
    170       2.8728      2.00000
    171       2.8728      2.00000
    172       2.8728      2.00000
    173       2.8728      2.00000
    174       2.8728      2.00000
    175       3.1504      2.00000
    176       3.1504      2.00000
    177       3.1504      2.00000
    178       3.1504      2.00000
    179       3.1504      2.00000
    180       3.1504      2.00000
    181       3.1622      2.00000
    182       3.1622      2.00000
    183       3.1622      2.00000
    184       3.1622      2.00000
    185       3.1622      2.00000
    186       3.1622      2.00000
    187       3.5221      2.00000
    188       3.5221      2.00000
    189       3.5221      2.00000
    190       3.5221      2.00000
    191       3.5221      2.00000
    192       3.5221      2.00000
    193       3.5533      2.00000
    194       3.5533      2.00000
    195       3.5533      2.00000
    196       3.5533      2.00000
    197       3.5533      2.00000
    198       3.5533      2.00000
    199       3.6247      2.00000
    200       3.6247      2.00000
    201       3.6247      2.00000
    202       3.6247      2.00000
    203       3.6247      2.00000
    204       3.6247      2.00000
    205       3.9035      2.00000
    206       3.9035      2.00000
    207       3.9035      2.00000
    208       3.9035      2.00000
    209       3.9035      2.00000
    210       3.9035      2.00000
    211       3.9035      2.00000
    212       3.9035      2.00000
    213       3.9035      2.00000
    214       3.9035      2.00000
    215       3.9035      2.00000
    216       3.9035      2.00000
    217       3.9464      2.00000
    218       3.9464      2.00000
    219       3.9464      2.00000
    220       3.9464      2.00000
    221       3.9464      2.00000
    222       3.9464      2.00000
    223       4.2343      2.00000
    224       4.2343      2.00000
    225       4.2705      2.00000
    226       4.2705      2.00000
    227       4.2705      2.00000
    228       4.2705      2.00000
    229       4.2705      2.00000
    230       4.2705      2.00000
    231       4.5138      2.00000
    232       4.5138      2.00000
    233       4.5138      2.00000
    234       4.5138      2.00000
    235       4.5138      2.00000
    236       4.5138      2.00000
    237       4.5902      2.00000
    238       4.5902      2.00000
    239       4.5902      2.00000
    240       4.5902      2.00000
    241       4.5902      2.00000
    242       4.5902      2.00000
    243       4.7457      2.00000
    244       4.7457      2.00000
    245       4.7457      2.00000
    246       4.7457      2.00000
    247       5.0584      2.00000
    248       5.0584      2.00000
    249       5.0584      2.00000
    250       5.0584      2.00000
    251       5.0584      2.00000
    252       5.0584      2.00000
    253       5.5427      2.00000
    254       5.5427      2.00000
    255       5.5427      2.00000
    256       5.5427      2.00000
    257       6.7261      0.00000
    258       6.7261      0.00000
    259       6.7261      0.00000
    260       6.7261      0.00000
    261       6.7261      0.00000
    262       6.7261      0.00000
    263       7.1831      0.00000
    264       7.1831      0.00000
    265       7.1831      0.00000
    266       7.1831      0.00000
    267       7.1831      0.00000
    268       7.1831      0.00000
    269       7.5014      0.00000
    270       7.5014      0.00000
    271       7.6769      0.00000
    272       7.6769      0.00000
    273       7.6769      0.00000
    274       7.6769      0.00000
    275       7.6769      0.00000
    276       7.6769      0.00000
    277       7.7991      0.00000
    278       7.7991      0.00000
    279       7.7991      0.00000
    280       7.7991      0.00000
    281       7.7991      0.00000
    282       7.7991      0.00000
    283       7.9810      0.00000
    284       7.9810      0.00000
    285       7.9810      0.00000
    286       7.9810      0.00000
    287       7.9810      0.00000
    288       7.9810      0.00000
    289       8.0280      0.00000
    290       8.0280      0.00000
    291       8.0280      0.00000
    292       8.0280      0.00000
    293       8.0280      0.00000
    294       8.0280      0.00000
    295       8.2206      0.00000
    296       8.2206      0.00000
    297       8.2206      0.00000
    298       8.2206      0.00000
    299       8.2206      0.00000
    300       8.2206      0.00000
    301       8.2206      0.00000
    302       8.2206      0.00000
    303       8.2206      0.00000
    304       8.2206      0.00000
    305       8.2206      0.00000
    306       8.2206      0.00000
    307       8.3377      0.00000
    308       8.3377      0.00000
    309       8.5546      0.00000
    310       8.5546      0.00000
    311       8.5546      0.00000
    312       8.5546      0.00000
    313       8.5546      0.00000
    314       8.5546      0.00000
    315       8.7103      0.00000
    316       8.7103      0.00000
    317       8.7103      0.00000
    318       8.7103      0.00000
    319       8.7103      0.00000
    320       8.7103      0.00000
    321       8.7103      0.00000

 k-point     3 :       0.5000    0.5000    0.0000
  band No.  band energies     occupation 
      1      -5.8565      2.00000
      2      -5.8565      2.00000
      3      -5.5889      2.00000
      4      -5.5889      2.00000
      5      -5.5889      2.00000
      6      -5.5889      2.00000
      7      -4.7995      2.00000
      8      -4.7995      2.00000
      9      -4.7995      2.00000
     10      -4.7995      2.00000
     11      -4.7995      2.00000
     12      -4.7995      2.00000
     13      -4.7995      2.00000
     14      -4.7995      2.00000
     15      -4.5723      2.00000
     16      -4.5723      2.00000
     17      -4.5723      2.00000
     18      -4.5723      2.00000
     19      -4.5723      2.00000
     20      -4.5723      2.00000
     21      -4.5723      2.00000
     22      -4.5723      2.00000
     23      -3.9551      2.00000
     24      -3.9551      2.00000
     25      -3.9551      2.00000
     26      -3.9551      2.00000
     27      -3.9551      2.00000
     28      -3.9551      2.00000
     29      -3.9551      2.00000
     30      -3.9551      2.00000
     31      -3.7340      2.00000
     32      -3.7340      2.00000
     33      -3.5353      2.00000
     34      -3.5353      2.00000
     35      -3.5353      2.00000
     36      -3.5353      2.00000
     37      -3.5353      2.00000
     38      -3.5353      2.00000
     39      -3.5353      2.00000
     40      -3.5353      2.00000
     41      -3.2581      2.00000
     42      -3.2581      2.00000
     43      -3.2581      2.00000
     44      -3.2581      2.00000
     45      -3.2581      2.00000
     46      -3.2581      2.00000
     47      -3.2581      2.00000
     48      -3.2581      2.00000
     49      -3.0109      2.00000
     50      -3.0109      2.00000
     51      -3.0109      2.00000
     52      -3.0109      2.00000
     53      -3.0109      2.00000
     54      -3.0109      2.00000
     55      -3.0109      2.00000
     56      -3.0109      2.00000
     57      -2.3973      2.00000
     58      -2.3973      2.00000
     59      -2.3973      2.00000
     60      -2.3973      2.00000
     61      -1.9054      2.00000
     62      -1.9054      2.00000
     63      -1.9054      2.00000
     64      -1.9054      2.00000
     65      -1.9054      2.00000
     66      -1.9054      2.00000
     67      -1.9054      2.00000
     68      -1.9054      2.00000
     69      -1.3933      2.00000
     70      -1.3933      2.00000
     71      -1.3933      2.00000
     72      -1.3933      2.00000
     73      -0.9532      2.00000
     74      -0.9532      2.00000
     75      -0.9532      2.00000
     76      -0.9532      2.00000
     77      -0.9532      2.00000
     78      -0.9532      2.00000
     79      -0.9532      2.00000
     80      -0.9532      2.00000
     81      -0.7352      2.00000
     82      -0.7352      2.00000
     83      -0.7352      2.00000
     84      -0.7352      2.00000
     85      -0.7352      2.00000
     86      -0.7352      2.00000
     87      -0.7352      2.00000
     88      -0.7352      2.00000
     89      -0.5444      2.00000
     90      -0.5444      2.00000
     91      -0.5444      2.00000
     92      -0.5444      2.00000
     93      -0.5444      2.00000
     94      -0.5444      2.00000
     95      -0.5444      2.00000
     96      -0.5444      2.00000
     97      -0.1302      2.00000
     98      -0.1302      2.00000
     99      -0.1302      2.00000
    100      -0.1302      2.00000
    101      -0.1302      2.00000
    102      -0.1302      2.00000
    103      -0.1302      2.00000
    104      -0.1302      2.00000
    105       0.0888      2.00000
    106       0.0888      2.00000
    107       0.5487      2.00000
    108       0.5487      2.00000
    109       0.5487      2.00000
    110       0.5487      2.00000
    111       0.5487      2.00000
    112       0.5487      2.00000
    113       0.5487      2.00000
    114       0.5487      2.00000
    115       1.5308      2.00000
    116       1.5308      2.00000
    117       1.5308      2.00000
    118       1.5308      2.00000
    119       1.5446      2.00000
    120       1.5446      2.00000
    121       1.5446      2.00000
    122       1.5446      2.00000
    123       1.5446      2.00000
    124       1.5446      2.00000
    125       1.5446      2.00000
    126       1.5446      2.00000
    127       1.6054      2.00000
    128       1.6054      2.00000
    129       1.6054      2.00000
    130       1.6054      2.00000
    131       1.6054      2.00000
    132       1.6054      2.00000
    133       1.6054      2.00000
    134       1.6054      2.00000
    135       2.3832      2.00000
    136       2.3832      2.00000
    137       2.3832      2.00000
    138       2.3832      2.00000
    139       2.3832      2.00000
    140       2.3832      2.00000
    141       2.3832      2.00000
    142       2.3832      2.00000
    143       2.4162      2.00000
    144       2.4162      2.00000
    145       2.4162      2.00000
    146       2.4162      2.00000
    147       2.4162      2.00000
    148       2.4162      2.00000
    149       2.4162      2.00000
    150       2.4162      2.00000
    151       2.4707      2.00000
    152       2.4707      2.00000
    153       2.4707      2.00000
    154       2.4707      2.00000
    155       2.4707      2.00000
    156       2.4707      2.00000
    157       2.4707      2.00000
    158       2.4707      2.00000
    159       3.0736      2.00000
    160       3.0736      2.00000
    161       3.0736      2.00000
    162       3.0736      2.00000
    163       3.0736      2.00000
    164       3.0736      2.00000
    165       3.0736      2.00000
    166       3.0736      2.00000
    167       3.1197      2.00000
    168       3.1197      2.00000
    169       3.1197      2.00000
    170       3.1197      2.00000
    171       3.1197      2.00000
    172       3.1197      2.00000
    173       3.1197      2.00000
    174       3.1197      2.00000
    175       3.1498      2.00000
    176       3.1498      2.00000
    177       3.1498      2.00000
    178       3.1498      2.00000
    179       3.2265      2.00000
    180       3.2265      2.00000
    181       3.2265      2.00000
    182       3.2265      2.00000
    183       3.2488      2.00000
    184       3.2488      2.00000
    185       3.2488      2.00000
    186       3.2488      2.00000
    187       3.2488      2.00000
    188       3.2488      2.00000
    189       3.2488      2.00000
    190       3.2488      2.00000
    191       3.3715      2.00000
    192       3.3715      2.00000
    193       3.3715      2.00000
    194       3.3715      2.00000
    195       3.3715      2.00000
    196       3.3715      2.00000
    197       3.3715      2.00000
    198       3.3715      2.00000
    199       3.4079      2.00000
    200       3.4079      2.00000
    201       3.4079      2.00000
    202       3.4079      2.00000
    203       3.6737      2.00000
    204       3.6737      2.00000
    205       3.6737      2.00000
    206       3.6737      2.00000
    207       3.6737      2.00000
    208       3.6737      2.00000
    209       3.6737      2.00000
    210       3.6737      2.00000
    211       3.9989      2.00000
    212       3.9989      2.00000
    213       3.9989      2.00000
    214       3.9989      2.00000
    215       3.9989      2.00000
    216       3.9989      2.00000
    217       3.9989      2.00000
    218       3.9989      2.00000
    219       4.2038      2.00000
    220       4.2038      2.00000
    221       4.2038      2.00000
    222       4.2038      2.00000
    223       4.2459      2.00000
    224       4.2459      2.00000
    225       4.2459      2.00000
    226       4.2459      2.00000
    227       4.2459      2.00000
    228       4.2459      2.00000
    229       4.2459      2.00000
    230       4.2459      2.00000
    231       4.4050      2.00000
    232       4.4050      2.00000
    233       4.4050      2.00000
    234       4.4050      2.00000
    235       4.4050      2.00000
    236       4.4050      2.00000
    237       4.4050      2.00000
    238       4.4050      2.00000
    239       4.4999      2.00000
    240       4.4999      2.00000
    241       4.5670      2.00000
    242       4.5670      2.00000
    243       4.5670      2.00000
    244       4.5670      2.00000
    245       4.5670      2.00000
    246       4.5670      2.00000
    247       4.5670      2.00000
    248       4.5670      2.00000
    249       5.0252      2.00000
    250       5.0252      2.00000
    251       5.0252      2.00000
    252       5.0252      2.00000
    253       5.5390      2.00000
    254       5.5390      2.00000
    255       5.5390      2.00000
    256       5.5390      2.00000
    257       6.4471      0.00000
    258       6.4471      0.00000
    259       7.0358      0.00000
    260       7.0358      0.00000
    261       7.0358      0.00000
    262       7.0358      0.00000
    263       7.3712      0.00000
    264       7.3712      0.00000
    265       7.7794      0.00000
    266       7.7794      0.00000
    267       7.7794      0.00000
    268       7.7794      0.00000
    269       7.7794      0.00000
    270       7.7794      0.00000
    271       7.7794      0.00000
    272       7.7794      0.00000
    273       7.8024      0.00000
    274       7.8024      0.00000
    275       7.8024      0.00000
    276       7.8024      0.00000
    277       7.8025      0.00000
    278       7.8025      0.00000
    279       7.8025      0.00000
    280       7.8025      0.00000
    281       7.8450      0.00000
    282       7.8450      0.00000
    283       8.0807      0.00000
    284       8.0807      0.00000
    285       8.0807      0.00000
    286       8.0807      0.00000
    287       8.0807      0.00000
    288       8.0807      0.00000
    289       8.0807      0.00000
    290       8.0807      0.00000
    291       8.1952      0.00000
    292       8.1952      0.00000
    293       8.1952      0.00000
    294       8.1952      0.00000
    295       8.1952      0.00000
    296       8.1952      0.00000
    297       8.1952      0.00000
    298       8.1952      0.00000
    299       8.2804      0.00000
    300       8.2804      0.00000
    301       8.2804      0.00000
    302       8.2804      0.00000
    303       8.2804      0.00000
    304       8.2804      0.00000
    305       8.2804      0.00000
    306       8.2804      0.00000
    307       8.4783      0.00000
    308       8.4783      0.00000
    309       8.4783      0.00000
    310       8.4783      0.00000
    311       8.4783      0.00000
    312       8.4783      0.00000
    313       8.4783      0.00000
    314       8.4783      0.00000
    315       8.7006      0.00000
    316       8.7006      0.00000
    317       8.7006      0.00000
    318       8.7006      0.00000
    319       8.7006      0.00000
    320       8.7006      0.00000
    321       8.7006      0.00000


--------------------------------------------------------------------------------------------------------


 soft charge-density along one line, spin component            1
         0         1         2         3         4         5         6         7         8         9
 total charge-density along one line
 
 pseudopotential strength for first ion, spin component:            1
 18.413  25.689  -0.000  -0.000  -0.000  -0.000  -0.000  -0.000
 25.689  35.845  -0.000  -0.000  -0.000  -0.000  -0.000  -0.000
 -0.000  -0.000   4.178  -0.000  -0.000   7.786  -0.000  -0.000
 -0.000  -0.000  -0.000   4.178  -0.000  -0.000   7.786  -0.000
 -0.000  -0.000  -0.000  -0.000   4.178  -0.000  -0.000   7.786
 -0.000  -0.000   7.786  -0.000  -0.000  14.519  -0.000  -0.000
 -0.000  -0.000  -0.000   7.786  -0.000  -0.000  14.519  -0.000
 -0.000  -0.000  -0.000  -0.000   7.786  -0.000  -0.000  14.519
 total augmentation occupancy for first ion, spin component:            1
  5.701  -2.159   0.000   0.000   0.000  -0.000  -0.000  -0.000
 -2.159   0.932  -0.000  -0.000  -0.000  -0.000   0.000   0.000
  0.000  -0.000   2.978   0.000  -0.000  -0.670  -0.000   0.000
 -0.000  -0.000   0.000   2.978   0.000   0.000  -0.670  -0.000
  0.000  -0.000  -0.000   0.000   2.978   0.000  -0.000  -0.670
 -0.000   0.000  -0.670   0.000   0.000   0.160  -0.000  -0.000
 -0.000   0.000  -0.000  -0.670  -0.000   0.000   0.160   0.000
 -0.000   0.000   0.000  -0.000  -0.670  -0.000   0.000   0.160


------------------------ aborting loop because EDIFF is reached ----------------------------------------


    CHARGE:  cpu time      0.4384: real time      0.4399
    FORLOC:  cpu time      0.0065: real time      0.0065
    FORNL :  cpu time      0.3543: real time      0.3555
    STRESS:  cpu time      1.0706: real time      1.0741
    FORCOR:  cpu time      0.0256: real time      0.0257
    FORHAR:  cpu time      0.0047: real time      0.0047
    MIXING:  cpu time      0.1341: real time      0.1367
    OFIELD:  cpu time      0.0000: real time      0.0000

  FORCE on cell =-STRESS in cart. coord.  units (eV):
  Direction    XX          YY          ZZ          XY          YZ          ZX
  --------------------------------------------------------------------------------------
  Alpha Z   215.30542   215.30542   215.30542
  Ewald   -4876.07246 -4876.07246 -4876.07246     0.00000    -0.00000     0.00000
  Hartree   318.50205   318.50205   318.50205     0.00000     0.00000     0.00000
  E(xc)   -1623.74598 -1623.74598 -1623.74598    -0.00015    -0.00015    -0.00015
  Local   -1870.68522 -1870.68522 -1870.68522     0.00147     0.00147     0.00147
  n-local  4988.56599  4966.62273  4988.56601    -9.12349     9.12389     9.12390
  augment  -745.57880  -745.57880  -745.57880    -0.00116    -0.00116    -0.00116
  Kinetic  3642.21511  3611.84309  3642.21511   -13.75781    13.75814    13.75814
  Fock        0.00000     0.00000     0.00000     0.00000     0.00000     0.00000
  -------------------------------------------------------------------------------------
  Total      31.06769    31.06769    31.06769    -0.00000     0.00000     0.00000
  in kB      19.43122    19.43122    19.43122    -0.00000     0.00000     0.00000
  external pressure =       19.43 kB  Pullay stress =        0.00 kB


 VOLUME and BASIS-vectors are now :
 -----------------------------------------------------------------------------
  energy-cutoff  :      400.00
  volume of cell :     2561.65
      direct lattice vectors                 reciprocal lattice vectors
    10.860000000 10.860000000  0.000000000     0.046040516  0.046040516 -0.046040516
     0.000000000 10.860000000 10.860000000    -0.046040516  0.046040516  0.046040516
    10.860000000  0.000000000 10.860000000     0.046040516 -0.046040516  0.046040516

  length of vectors
    15.358359287 15.358359287 15.358359287     0.079744512  0.079744512  0.079744512


 FORCES acting on ions
    electron-ion (+dipol)            ewald-force                    non-local-force                 convergence-correction
 -----------------------------------------------------------------------------------------------
   0.793E-06 0.813E-06 0.793E-06   0.164E-13 0.200E-13 -.202E-13   0.117E-17 0.163E-16 -.179E-17   -.272E-14 -.104E-13 -.667E-14
   -.793E-06 -.813E-06 -.793E-06   -.202E-13 -.189E-13 0.352E-13   -.124E-16 -.171E-16 -.155E-16   0.180E-13 -.895E-14 0.124E-13
   0.793E-06 0.813E-06 0.793E-06   -.210E-13 0.158E-13 -.290E-13   0.218E-16 0.191E-16 0.134E-16   0.277E-14 -.216E-13 -.288E-14
   -.793E-06 -.813E-06 -.793E-06   -.145E-13 -.228E-13 0.277E-13   0.230E-17 -.189E-16 -.384E-17   0.152E-13 -.267E-14 0.132E-13
   0.793E-06 0.813E-06 0.793E-06   -.552E-14 0.134E-13 -.181E-13   0.248E-16 0.418E-16 -.420E-17   -.338E-14 -.635E-14 -.186E-13
   -.793E-06 -.813E-06 -.793E-06   -.554E-14 -.291E-13 0.286E-13   -.577E-17 -.520E-17 -.713E-17   -.145E-14 0.173E-13 -.148E-15
   0.793E-06 0.813E-06 0.793E-06   -.437E-14 -.831E-14 -.138E-13   0.423E-16 0.334E-16 0.215E-17   -.138E-13 -.529E-14 -.297E-13
   -.793E-06 -.813E-06 -.793E-06   -.175E-13 -.247E-13 0.212E-13   -.309E-16 -.440E-16 -.141E-16   0.286E-14 0.929E-14 -.816E-15
   0.793E-06 0.813E-06 0.793E-06   -.142E-13 0.258E-13 -.296E-13   0.146E-16 0.263E-16 0.194E-16   0.103E-13 -.284E-13 -.205E-14
   -.793E-06 -.813E-06 -.793E-06   -.695E-14 -.345E-13 0.221E-13   -.188E-16 -.432E-16 -.103E-16   0.215E-13 0.864E-15 0.212E-13
   0.793E-06 0.813E-06 0.793E-06   -.246E-13 0.447E-13 0.184E-15   -.129E-16 0.308E-16 0.852E-17   0.110E-13 -.171E-13 -.317E-14
   -.793E-06 -.813E-06 -.793E-06   -.149E-13 -.331E-13 0.208E-13   -.412E-17 -.631E-17 -.678E-19   0.150E-13 -.320E-14 0.211E-13
   0.793E-06 0.813E-06 0.793E-06   0.193E-13 0.341E-13 -.230E-14   0.185E-16 0.180E-16 0.180E-17   -.981E-14 -.873E-14 -.353E-13
   -.793E-06 -.813E-06 -.793E-06   -.548E-14 -.766E-14 0.210E-13   -.274E-16 -.206E-16 0.955E-17   -.521E-14 0.115E-13 -.105E-13
   0.793E-06 0.813E-06 0.793E-06   0.189E-13 0.293E-13 -.109E-13   0.367E-16 0.281E-16 -.121E-16   -.789E-14 -.971E-14 -.380E-13
   -.793E-06 -.813E-06 -.793E-06   -.406E-14 0.115E-13 0.283E-13   -.392E-16 -.324E-16 -.243E-16   -.483E-14 0.142E-13 0.127E-14
   0.793E-06 0.813E-06 0.793E-06   0.202E-14 -.397E-13 0.218E-13   0.240E-16 0.294E-16 0.801E-17   -.325E-14 -.167E-13 0.542E-14
   -.793E-06 -.813E-06 -.793E-06   -.288E-14 -.311E-13 0.916E-14   -.167E-16 -.389E-16 0.779E-17   0.145E-13 0.610E-14 0.214E-13
   0.793E-06 0.813E-06 0.793E-06   0.817E-14 -.188E-13 -.326E-14   -.949E-19 0.297E-16 0.109E-16   0.110E-14 -.188E-13 0.124E-13
   -.793E-06 -.813E-06 -.793E-06   -.192E-13 -.156E-13 0.219E-13   -.290E-17 -.114E-16 -.271E-17   0.215E-14 0.568E-14 0.232E-13
   0.793E-06 0.813E-06 0.793E-06   0.895E-14 -.402E-14 -.530E-14   0.489E-17 0.415E-17 0.154E-16   -.279E-13 0.146E-13 -.193E-13
   -.793E-06 -.813E-06 -.793E-06   -.103E-13 -.506E-14 0.153E-13   -.129E-16 -.139E-16 -.740E-17   -.141E-13 0.276E-13 0.139E-13
   0.793E-06 0.813E-06 0.793E-06   -.178E-13 -.864E-14 0.000E+00   0.546E-17 0.208E-16 0.585E-17   -.411E-13 0.718E-15 -.202E-14
   -.793E-06 -.813E-06 -.793E-06   -.895E-14 0.119E-14 0.233E-13   -.513E-16 -.188E-16 -.199E-16   -.139E-13 0.201E-13 0.119E-13
   0.793E-06 0.813E-06 0.793E-06   0.330E-14 -.209E-13 0.107E-13   0.223E-16 0.231E-16 -.157E-17   -.153E-13 -.669E-14 -.117E-13
   -.793E-06 -.813E-06 -.793E-06   -.225E-15 -.204E-13 0.271E-13   -.220E-16 -.164E-16 -.648E-17   0.829E-14 0.999E-14 0.246E-13
   0.793E-06 0.813E-06 0.793E-06   0.268E-13 -.175E-13 -.165E-13   0.187E-16 0.180E-16 0.172E-16   0.493E-14 -.298E-13 0.450E-14
   -.793E-06 -.813E-06 -.793E-06   -.623E-14 -.465E-14 0.153E-13   -.325E-17 -.105E-16 0.970E-17   0.366E-14 -.157E-14 0.317E-13
   0.793E-06 0.813E-06 0.793E-06   -.164E-13 -.745E-15 0.260E-13   0.180E-16 0.308E-16 0.360E-17   -.208E-13 -.170E-14 -.154E-14
   -.793E-06 -.813E-06 -.793E-06   -.118E-13 0.559E-14 0.162E-13   -.318E-17 -.226E-16 -.161E-16   -.103E-13 0.223E-13 0.556E-14
   0.793E-06 0.813E-06 0.793E-06   -.252E-13 -.128E-13 0.248E-13   0.269E-16 0.807E-17 0.114E-16   -.337E-13 0.901E-14 -.118E-14
   -.793E-06 -.813E-06 -.793E-06   -.104E-13 0.784E-14 0.203E-13   -.173E-16 -.258E-16 -.442E-17   -.147E-13 0.212E-13 0.102E-13
   0.793E-06 0.813E-06 0.793E-06   -.306E-14 0.271E-14 0.145E-13   0.400E-17 0.587E-17 0.191E-17   -.745E-14 -.127E-13 -.809E-14
   -.793E-06 -.813E-06 -.793E-06   0.228E-13 -.294E-13 0.265E-13   -.138E-16 -.108E-16 -.115E-16   0.165E-13 0.240E-14 0.137E-13
   0.793E-06 0.813E-06 0.793E-06   -.470E-13 0.216E-13 0.606E-14   0.215E-16 0.100E-16 0.131E-16   0.959E-14 -.272E-13 -.507E-14
   -.793E-06 -.813E-06 -.793E-06   -.618E-14 -.216E-13 0.321E-13   0.610E-17 -.126E-16 0.175E-17   0.171E-13 -.483E-14 0.173E-13
   0.793E-06 0.813E-06 0.793E-06   -.356E-13 -.143E-14 -.334E-15   0.215E-16 0.378E-16 0.718E-18   -.674E-14 -.820E-14 -.130E-13
   -.793E-06 -.813E-06 -.793E-06   0.656E-15 -.286E-13 0.107E-13   -.147E-16 -.257E-17 -.854E-17   -.954E-15 0.140E-13 -.466E-14
   0.793E-06 0.813E-06 0.793E-06   -.135E-13 0.323E-13 -.605E-14   0.351E-16 0.233E-16 -.152E-17   -.150E-13 -.341E-15 -.302E-13
   -.793E-06 -.813E-06 -.793E-06   -.389E-14 -.140E-13 0.699E-14   -.239E-16 -.400E-16 -.957E-17   0.624E-14 0.129E-13 -.466E-14
   0.793E-06 0.813E-06 0.793E-06   -.158E-13 -.416E-13 0.355E-13   0.154E-16 0.224E-16 0.866E-17   0.513E-14 -.200E-13 -.657E-14
   -.793E-06 -.813E-06 -.793E-06   0.155E-13 0.530E-14 0.583E-14   -.169E-16 -.351E-16 -.613E-17   0.133E-13 0.636E-14 0.187E-13
   0.793E-06 0.813E-06 0.793E-06   -.379E-13 0.550E-14 0.310E-13   -.146E-16 0.205E-16 0.121E-16   0.694E-14 -.209E-13 0.273E-14
   -.793E-06 -.813E-06 -.793E-06   -.719E-14 -.639E-14 0.117E-13   -.640E-17 0.576E-18 0.163E-18   0.205E-13 0.637E-14 0.887E-14
   0.793E-06 0.813E-06 0.793E-06   -.209E-13 -.396E-13 -.199E-14   0.892E-17 0.179E-16 0.651E-18   -.981E-14 -.958E-14 -.418E-13
   -.793E-06 -.813E-06 -.793E-06   0.355E-13 -.124E-13 -.310E-14   -.294E-16 -.109E-16 0.842E-17   -.327E-14 0.194E-13 -.672E-14
   0.793E-06 0.813E-06 0.793E-06   -.237E-13 -.187E-13 -.918E-14   0.235E-16 0.308E-16 -.880E-17   0.279E-15 -.643E-14 -.327E-13
   -.793E-06 -.813E-06 -.793E-06   0.447E-14 0.313E-13 -.163E-14   -.495E-16 -.363E-16 -.270E-16   0.841E-14 0.154E-13 0.369E-15
   0.793E-06 0.813E-06 0.793E-06   -.932E-14 -.120E-13 0.295E-13   0.267E-16 0.355E-16 0.458E-17   0.304E-16 -.113E-13 0.147E-14
   -.793E-06 -.813E-06 -.793E-06   0.195E-13 0.412E-13 0.308E-13   -.189E-16 -.322E-16 0.847E-17   0.750E-14 0.803E-14 0.153E-13
   0.793E-06 0.813E-06 0.793E-06   -.179E-13 0.133E-13 0.243E-13   -.328E-17 0.234E-16 0.538E-17   -.171E-14 -.209E-13 0.308E-14
   -.793E-06 -.813E-06 -.793E-06   0.279E-13 0.583E-13 0.139E-13   -.104E-16 -.256E-17 0.435E-17   0.146E-13 0.443E-14 0.197E-13
   0.793E-06 0.813E-06 0.793E-06   -.794E-14 0.253E-13 -.479E-14   0.359E-17 0.111E-16 0.135E-16   -.282E-13 0.104E-13 -.147E-13
   -.793E-06 -.813E-06 -.793E-06   0.278E-13 0.529E-13 -.207E-14   -.797E-17 -.181E-16 -.115E-16   -.199E-13 0.249E-13 0.964E-14
   0.793E-06 0.813E-06 0.793E-06   -.178E-13 0.171E-13 -.121E-13   0.548E-17 0.253E-16 -.854E-18   -.197E-13 0.631E-14 -.165E-13
   -.793E-06 -.813E-06 -.793E-06   -.194E-13 0.979E-13 -.232E-14   -.518E-16 -.233E-16 -.208E-16   0.657E-16 0.151E-13 0.139E-13
   0.793E-06 0.813E-06 0.793E-06   -.894E-14 0.811E-14 -.120E-13   0.229E-16 0.194E-16 -.175E-17   -.875E-14 -.551E-14 -.147E-13
   -.793E-06 -.813E-06 -.793E-06   0.366E-13 -.193E-13 -.280E-14   -.185E-16 -.230E-16 -.760E-17   0.172E-14 0.107E-13 0.137E-13
   0.793E-06 0.813E-06 0.793E-06   -.579E-14 0.288E-13 -.184E-13   0.163E-16 0.145E-16 0.882E-17   0.102E-13 -.172E-13 0.888E-14
   -.793E-06 -.813E-06 -.793E-06   0.439E-13 0.774E-14 0.956E-14   0.470E-17 -.161E-16 0.999E-17   0.152E-13 0.576E-14 0.310E-13
   0.793E-06 0.813E-06 0.793E-06   0.199E-13 0.205E-13 -.734E-14   0.192E-16 0.254E-16 0.125E-16   -.265E-13 0.848E-14 -.843E-14
   -.793E-06 -.813E-06 -.793E-06   0.466E-13 -.158E-13 -.387E-14   -.145E-17 -.201E-16 -.108E-16   -.184E-13 0.238E-13 0.843E-14
   0.793E-06 0.813E-06 0.793E-06   -.458E-14 0.407E-13 -.276E-13   0.179E-16 0.263E-17 0.129E-16   -.308E-13 0.892E-14 -.566E-14
   -.793E-06 -.813E-06 -.793E-06   -.160E-13 -.229E-13 -.326E-13   -.142E-16 -.284E-16 -.309E-17   -.398E-14 0.231E-13 0.125E-13
   0.793E-06 0.813E-06 0.793E-06   -.208E-13 0.289E-13 -.275E-14   -.408E-17 0.313E-17 0.362E-17   -.788E-14 -.776E-14 -.701E-14
   -.793E-06 -.813E-06 -.793E-06   -.395E-14 -.591E-13 0.326E-13   -.867E-17 -.161E-16 -.143E-16   0.172E-13 0.900E-14 0.690E-14
   0.793E-06 0.813E-06 0.793E-06   -.561E-13 0.137E-13 -.854E-14   0.192E-16 0.168E-16 0.127E-16   0.104E-13 -.164E-13 0.190E-14
   -.793E-06 -.813E-06 -.793E-06   -.317E-13 -.366E-13 0.203E-13   -.249E-17 -.102E-16 0.881E-17   0.137E-13 0.784E-14 0.190E-13
   0.793E-06 0.813E-06 0.793E-06   -.510E-13 0.135E-14 -.615E-14   0.149E-16 0.291E-16 -.203E-17   -.114E-13 -.806E-14 -.187E-13
   -.793E-06 -.813E-06 -.793E-06   -.177E-13 -.187E-13 0.160E-13   -.850E-17 -.140E-16 -.350E-17   0.433E-14 0.143E-13 -.595E-14
   0.793E-06 0.813E-06 0.793E-06   -.253E-13 0.374E-13 -.122E-13   0.443E-16 0.217E-16 0.691E-18   -.154E-13 -.192E-14 -.266E-13
   -.793E-06 -.813E-06 -.793E-06   0.983E-14 -.182E-14 0.884E-15   -.203E-16 -.482E-16 -.114E-16   0.383E-14 0.120E-13 0.351E-16
   0.793E-06 0.813E-06 0.793E-06   -.925E-14 -.816E-13 0.142E-13   0.206E-16 0.222E-16 0.141E-16   0.840E-14 -.138E-13 -.822E-15
   -.793E-06 -.813E-06 -.793E-06   0.222E-14 0.471E-14 0.209E-13   -.867E-17 -.331E-16 -.889E-17   0.153E-13 -.547E-14 0.255E-13
   0.793E-06 0.813E-06 0.793E-06   -.318E-13 -.346E-13 0.144E-13   -.615E-17 0.243E-16 0.116E-16   0.106E-14 -.224E-13 -.861E-14
   -.793E-06 -.813E-06 -.793E-06   0.108E-13 -.270E-13 0.184E-13   -.892E-17 0.412E-17 -.674E-17   0.903E-14 -.160E-14 0.663E-14
   0.793E-06 0.813E-06 0.793E-06   -.284E-13 -.223E-13 -.354E-14   0.212E-16 0.257E-16 -.163E-18   -.706E-14 -.773E-14 -.346E-13
   -.793E-06 -.813E-06 -.793E-06   0.336E-13 -.809E-14 -.115E-13   -.226E-16 -.166E-16 0.102E-16   0.220E-14 0.109E-13 -.610E-14
   0.793E-06 0.813E-06 0.793E-06   -.140E-13 -.215E-14 -.108E-13   0.288E-16 0.274E-16 -.113E-16   -.564E-14 -.101E-13 -.273E-13
   -.793E-06 -.813E-06 -.793E-06   -.825E-14 0.317E-13 0.169E-13   -.415E-16 -.292E-16 -.250E-16   0.934E-14 0.116E-13 -.315E-14
   0.793E-06 0.813E-06 0.793E-06   -.256E-13 -.305E-13 0.939E-14   0.223E-16 0.351E-16 0.134E-16   -.920E-15 -.143E-13 -.467E-14
   -.793E-06 -.813E-06 -.793E-06   0.512E-14 0.301E-13 0.211E-13   -.176E-16 -.370E-16 0.705E-17   0.749E-14 0.673E-14 0.150E-13
   0.793E-06 0.813E-06 0.793E-06   -.313E-13 0.167E-13 0.190E-13   0.447E-18 0.288E-16 0.241E-17   0.376E-14 -.892E-14 0.907E-14
   -.793E-06 -.813E-06 -.793E-06   0.584E-15 0.417E-13 0.197E-13   -.445E-17 -.107E-16 -.217E-17   0.633E-14 0.124E-13 0.152E-13
   0.793E-06 0.813E-06 0.793E-06   -.385E-14 0.161E-13 0.136E-13   0.438E-17 0.149E-16 0.123E-16   -.362E-13 0.111E-13 -.280E-13
   -.793E-06 -.813E-06 -.793E-06   0.299E-13 0.305E-13 -.955E-14   -.847E-17 -.237E-16 -.790E-17   -.774E-14 0.291E-13 0.582E-14
   0.793E-06 0.813E-06 0.793E-06   -.112E-13 0.841E-14 0.570E-14   0.112E-16 0.171E-16 -.233E-17   -.110E-13 0.281E-14 -.671E-14
   -.793E-06 -.813E-06 -.793E-06   -.105E-13 0.438E-13 0.193E-13   -.416E-16 -.159E-16 -.149E-16   0.473E-14 0.239E-13 0.122E-13
   0.793E-06 0.813E-06 0.793E-06   0.361E-14 0.504E-15 -.196E-13   0.131E-16 0.130E-16 -.724E-17   -.997E-14 -.947E-14 -.169E-13
   -.793E-06 -.813E-06 -.793E-06   0.534E-14 -.651E-14 0.194E-13   -.217E-16 -.262E-16 -.592E-17   0.786E-14 0.134E-13 0.164E-13
   0.793E-06 0.813E-06 0.793E-06   -.400E-14 0.233E-13 -.100E-13   0.194E-16 0.215E-16 0.111E-16   0.100E-13 -.324E-13 0.395E-14
   -.793E-06 -.813E-06 -.793E-06   0.150E-13 0.410E-14 0.467E-14   -.599E-17 -.192E-16 0.588E-17   0.147E-13 0.121E-13 0.155E-13
   0.793E-06 0.813E-06 0.793E-06   -.248E-14 0.387E-13 -.154E-13   0.515E-17 0.314E-16 0.508E-17   -.243E-13 0.115E-13 0.395E-15
   -.793E-06 -.813E-06 -.793E-06   0.441E-13 -.202E-13 -.992E-14   0.413E-17 -.233E-16 -.161E-16   -.618E-14 0.297E-13 0.953E-14
   0.793E-06 0.813E-06 0.793E-06   -.980E-14 0.298E-13 -.243E-13   0.140E-16 0.261E-17 0.105E-16   -.242E-13 0.989E-14 -.139E-13
   -.793E-06 -.813E-06 -.793E-06   -.925E-14 -.135E-13 -.988E-14   -.123E-16 -.305E-16 -.492E-17   -.280E-14 0.267E-13 0.382E-14
   0.793E-06 0.813E-06 0.793E-06   0.138E-13 -.391E-14 0.393E-14   0.637E-18 0.636E-17 0.691E-17   -.224E-14 -.953E-14 -.135E-13
   -.793E-06 -.813E-06 -.793E-06   0.329E-14 -.914E-14 -.292E-13   -.112E-16 -.240E-16 -.105E-16   0.194E-13 -.420E-14 0.387E-14
   0.793E-06 0.813E-06 0.793E-06   0.104E-13 0.302E-14 0.265E-14   0.229E-16 0.164E-16 0.145E-16   0.690E-14 -.248E-13 -.315E-14
   -.793E-06 -.813E-06 -.793E-06   -.287E-14 0.483E-14 -.144E-14   0.919E-17 -.157E-16 0.154E-17   0.211E-13 0.195E-14 0.917E-14
   0.793E-06 0.813E-06 0.793E-06   -.351E-14 -.397E-15 -.515E-14   0.169E-16 0.360E-16 -.610E-18   -.415E-14 -.117E-13 -.254E-13
   -.793E-06 -.813E-06 -.793E-06   -.149E-13 0.268E-14 0.282E-14   -.212E-16 -.113E-16 -.951E-17   0.803E-14 0.141E-13 -.106E-13
   0.793E-06 0.813E-06 0.793E-06   0.794E-14 0.311E-14 -.255E-13   0.425E-16 0.259E-16 0.553E-17   -.277E-14 -.605E-14 -.317E-13
   -.793E-06 -.813E-06 -.793E-06   0.196E-13 0.513E-13 -.360E-14   -.245E-16 -.434E-16 -.892E-17   0.927E-14 0.133E-13 0.118E-14
   0.793E-06 0.813E-06 0.793E-06   0.223E-14 0.830E-14 -.888E-14   0.755E-17 0.224E-16 0.175E-16   0.520E-14 -.283E-13 0.374E-14
   -.793E-06 -.813E-06 -.793E-06   -.399E-14 0.266E-13 -.128E-13   -.128E-16 -.346E-16 -.832E-17   0.169E-13 0.756E-15 0.222E-13
   0.793E-06 0.813E-06 0.793E-06   0.240E-13 0.232E-13 -.155E-13   -.404E-17 0.284E-16 0.813E-17   0.306E-14 -.224E-13 -.101E-13
   -.793E-06 -.813E-06 -.793E-06   -.683E-14 0.946E-14 -.847E-14   0.989E-18 -.141E-17 -.350E-17   0.144E-13 0.856E-14 0.108E-13
   0.793E-06 0.813E-06 0.793E-06   0.126E-13 0.121E-13 -.189E-13   0.192E-16 0.291E-16 0.373E-17   -.277E-14 -.482E-14 -.295E-13
   -.793E-06 -.813E-06 -.793E-06   0.234E-13 0.202E-13 -.165E-14   -.247E-16 -.221E-16 0.308E-17   0.126E-13 0.212E-13 -.998E-14
   0.793E-06 0.813E-06 0.793E-06   0.157E-13 0.186E-13 -.247E-13   0.338E-16 0.258E-16 -.101E-16   -.914E-14 -.124E-13 -.371E-13
   -.793E-06 -.813E-06 -.793E-06   0.208E-13 0.215E-13 -.920E-14   -.424E-16 -.312E-16 -.296E-16   -.188E-14 0.176E-13 -.321E-14
   0.793E-06 0.813E-06 0.793E-06   0.135E-13 0.150E-13 -.187E-13   0.230E-16 0.297E-16 0.638E-17   -.118E-13 -.273E-14 -.761E-14
   -.793E-06 -.813E-06 -.793E-06   -.583E-15 -.251E-13 0.462E-14   -.760E-17 -.369E-16 0.266E-17   0.848E-14 0.104E-13 0.218E-13
   0.793E-06 0.813E-06 0.793E-06   0.142E-13 0.284E-13 -.109E-13   -.668E-17 0.220E-16 0.961E-17   -.491E-14 -.102E-13 0.148E-13
   -.793E-06 -.813E-06 -.793E-06   -.181E-14 -.343E-13 0.173E-13   -.123E-17 -.127E-16 -.245E-17   0.602E-14 0.174E-13 0.175E-13
   0.793E-06 0.813E-06 0.793E-06   0.736E-14 0.252E-13 -.144E-13   0.367E-17 0.754E-17 0.115E-16   -.221E-13 0.182E-13 -.311E-13
   -.793E-06 -.813E-06 -.793E-06   0.167E-14 -.246E-13 -.161E-13   -.562E-17 -.163E-16 -.113E-16   -.250E-14 0.317E-13 0.948E-14
   0.793E-06 0.813E-06 0.793E-06   -.717E-15 0.319E-13 -.285E-13   0.918E-17 0.115E-16 0.150E-17   -.165E-13 0.179E-13 0.347E-14
   -.793E-06 -.813E-06 -.793E-06   0.934E-14 -.322E-13 0.156E-13   -.419E-16 -.182E-16 -.183E-16   -.825E-14 0.274E-13 0.842E-14
   0.793E-06 0.813E-06 0.793E-06   0.127E-13 0.381E-13 -.101E-14   0.170E-16 0.155E-16 -.213E-17   -.816E-14 0.284E-14 -.213E-13
   -.793E-06 -.813E-06 -.793E-06   0.877E-14 0.170E-13 0.132E-13   -.221E-16 -.228E-16 -.458E-17   0.690E-14 0.102E-13 0.240E-13
   0.793E-06 0.813E-06 0.793E-06   0.558E-14 0.382E-13 -.353E-13   0.189E-16 0.226E-16 0.142E-16   0.115E-13 -.179E-13 -.206E-14
   -.793E-06 -.813E-06 -.793E-06   0.214E-13 -.294E-13 0.330E-13   -.295E-17 -.139E-16 0.595E-17   0.110E-13 0.824E-14 0.153E-13
   0.793E-06 0.813E-06 0.793E-06   0.231E-13 0.150E-13 -.385E-13   0.724E-17 0.316E-16 0.588E-17   -.190E-13 0.121E-13 -.400E-14
   -.793E-06 -.813E-06 -.793E-06   -.197E-14 -.741E-14 0.155E-13   0.908E-18 -.173E-16 -.209E-16   0.610E-15 0.277E-13 0.523E-14
   0.793E-06 0.813E-06 0.793E-06   0.138E-13 -.139E-15 -.368E-13   0.253E-16 0.142E-16 0.115E-16   -.119E-13 0.120E-13 -.217E-13
   -.793E-06 -.813E-06 -.793E-06   0.287E-14 -.104E-13 0.309E-13   -.135E-16 -.319E-16 -.969E-17   -.289E-14 0.224E-13 0.173E-14
 -----------------------------------------------------------------------------------------------
   -.188E-11 0.108E-11 -.623E-11   -.201E-12 0.332E-12 0.335E-12   -.261E-16 0.220E-16 -.442E-16   -.152E-12 0.290E-12 -.956E-13
 
 
 POSITION                                       TOTAL-FORCE (eV/Angst)
 -----------------------------------------------------------------------------------
      0.00000      0.00000      0.00000         0.000000      0.000000     -0.000000
      1.35750      1.35750      1.35750        -0.000000     -0.000000     -0.000000
      2.71500      0.00000      2.71500         0.000000      0.000000     -0.000000
      4.07250      1.35750      4.07250        -0.000000     -0.000000     -0.000000
      5.43000      0.00000      5.43000         0.000000      0.000000      0.000000
      6.78750      1.35750      6.78750        -0.000000     -0.000000      0.000000
      8.14500      0.00000      8.14500         0.000000      0.000000      0.000000
      9.50250      1.35750      9.50250        -0.000000     -0.000000      0.000000
      0.00000      2.71500      2.71500         0.000000      0.000000      0.000000
      1.35750      4.07250      4.07250        -0.000000     -0.000000      0.000000
      2.71500      2.71500      5.43000         0.000000      0.000000     -0.000000
      4.07250      4.07250      6.78750        -0.000000     -0.000000     -0.000000
      5.43000      2.71500      8.14500         0.000000      0.000000      0.000000
      6.78750      4.07250      9.50250        -0.000000     -0.000000     -0.000000
      8.14500      2.71500     10.86000         0.000000      0.000000     -0.000000
      9.50250      4.07250     12.21750        -0.000000     -0.000000      0.000000
      0.00000      5.43000      5.43000         0.000000      0.000000      0.000000
      1.35750      6.78750      6.78750        -0.000000     -0.000000     -0.000000
      2.71500      5.43000      8.14500         0.000000      0.000000      0.000000
      4.07250      6.78750      9.50250        -0.000000     -0.000000     -0.000000
      5.43000      5.43000     10.86000         0.000000      0.000000      0.000000
      6.78750      6.78750     12.21750        -0.000000     -0.000000     -0.000000
      8.14500      5.43000     13.57500         0.000000      0.000000      0.000000
      9.50250      6.78750     14.93250        -0.000000     -0.000000      0.000000
      0.00000      8.14500      8.14500         0.000000      0.000000      0.000000
      1.35750      9.50250      9.50250        -0.000000     -0.000000     -0.000000
      2.71500      8.14500     10.86000         0.000000      0.000000     -0.000000
      4.07250      9.50250     12.21750        -0.000000     -0.000000     -0.000000
      5.43000      8.14500     13.57500         0.000000      0.000000      0.000000
      6.78750      9.50250     14.93250        -0.000000     -0.000000     -0.000000
      8.14500      8.14500     16.29000         0.000000      0.000000     -0.000000
      9.50250      9.50250     17.64750        -0.000000     -0.000000      0.000000
      2.71500      2.71500      0.00000         0.000000      0.000000     -0.000000
      4.07250      4.07250      1.35750        -0.000000     -0.000000     -0.000000
      5.43000      2.71500      2.71500         0.000000      0.000000     -0.000000
      6.78750      4.07250      4.07250        -0.000000     -0.000000     -0.000000
      8.14500      2.71500      5.43000         0.000000      0.000000      0.000000
      9.50250      4.07250      6.78750        -0.000000     -0.000000      0.000000
     10.86000      2.71500      8.14500         0.000000      0.000000      0.000000
     12.21750      4.07250      9.50250        -0.000000     -0.000000      0.000000
      2.71500      5.43000      2.71500         0.000000      0.000000      0.000000
      4.07250      6.78750      4.07250        -0.000000     -0.000000      0.000000
      5.43000      5.43000      5.43000         0.000000      0.000000     -0.000000
      6.78750      6.78750      6.78750        -0.000000     -0.000000      0.000000
      8.14500      5.43000      8.14500         0.000000      0.000000      0.000000
      9.50250      6.78750      9.50250        -0.000000     -0.000000     -0.000000
     10.86000      5.43000     10.86000         0.000000      0.000000     -0.000000
     12.21750      6.78750     12.21750        -0.000000     -0.000000      0.000000
      2.71500      8.14500      5.43000         0.000000      0.000000      0.000000
      4.07250      9.50250      6.78750        -0.000000     -0.000000     -0.000000
      5.43000      8.14500      8.14500         0.000000      0.000000     -0.000000
      6.78750      9.50250      9.50250        -0.000000     -0.000000     -0.000000
      8.14500      8.14500     10.86000         0.000000      0.000000      0.000000
      9.50250      9.50250     12.21750        -0.000000     -0.000000     -0.000000
     10.86000      8.14500     13.57500         0.000000      0.000000     -0.000000
     12.21750      9.50250     14.93250        -0.000000     -0.000000      0.000000
      2.71500     10.86000      8.14500         0.000000      0.000000      0.000000
      4.07250     12.21750      9.50250        -0.000000     -0.000000     -0.000000
      5.43000     10.86000     10.86000         0.000000      0.000000      0.000000
      6.78750     12.21750     12.21750        -0.000000     -0.000000     -0.000000
      8.14500     10.86000     13.57500         0.000000      0.000000      0.000000
      9.50250     12.21750     14.93250        -0.000000     -0.000000     -0.000000
     10.86000     10.86000     16.29000         0.000000      0.000000      0.000000
     12.21750     12.21750     17.64750        -0.000000     -0.000000      0.000000
      5.43000      5.43000      0.00000         0.000000      0.000000      0.000000
      6.78750      6.78750      1.35750        -0.000000     -0.000000     -0.000000
      8.14500      5.43000      2.71500         0.000000      0.000000     -0.000000
      9.50250      6.78750      4.07250        -0.000000     -0.000000     -0.000000
     10.86000      5.43000      5.43000         0.000000      0.000000      0.000000
     12.21750      6.78750      6.78750        -0.000000     -0.000000      0.000000
     13.57500      5.43000      8.14500         0.000000      0.000000      0.000000
     14.93250      6.78750      9.50250        -0.000000     -0.000000      0.000000
      5.43000      8.14500      2.71500         0.000000      0.000000      0.000000
      6.78750      9.50250      4.07250        -0.000000     -0.000000      0.000000
      8.14500      8.14500      5.43000         0.000000      0.000000      0.000000
      9.50250      9.50250      6.78750        -0.000000     -0.000000      0.000000
     10.86000      8.14500      8.14500         0.000000      0.000000      0.000000
     12.21750      9.50250      9.50250        -0.000000     -0.000000     -0.000000
     13.57500      8.14500     10.86000         0.000000      0.000000      0.000000
     14.93250      9.50250     12.21750        -0.000000     -0.000000     -0.000000
      5.43000     10.86000      5.43000         0.000000      0.000000      0.000000
      6.78750     12.21750      6.78750        -0.000000     -0.000000     -0.000000
      8.14500     10.86000      8.14500         0.000000      0.000000     -0.000000
      9.50250     12.21750      9.50250        -0.000000     -0.000000     -0.000000
     10.86000     10.86000     10.86000         0.000000      0.000000      0.000000
     12.21750     12.21750     12.21750        -0.000000     -0.000000     -0.000000
     13.57500     10.86000     13.57500         0.000000      0.000000      0.000000
     14.93250     12.21750     14.93250        -0.000000     -0.000000      0.000000
      5.43000     13.57500      8.14500         0.000000      0.000000      0.000000
      6.78750     14.93250      9.50250        -0.000000     -0.000000     -0.000000
      8.14500     13.57500     10.86000         0.000000      0.000000      0.000000
      9.50250     14.93250     12.21750        -0.000000     -0.000000     -0.000000
     10.86000     13.57500     13.57500         0.000000      0.000000      0.000000
     12.21750     14.93250     14.93250        -0.000000     -0.000000     -0.000000
     13.57500     13.57500     16.29000         0.000000      0.000000      0.000000
     14.93250     14.93250     17.64750        -0.000000     -0.000000      0.000000
      8.14500      8.14500      0.00000         0.000000      0.000000      0.000000
      9.50250      9.50250      1.35750        -0.000000     -0.000000     -0.000000
     10.86000      8.14500      2.71500         0.000000      0.000000     -0.000000
     12.21750      9.50250      4.07250        -0.000000     -0.000000     -0.000000
     13.57500      8.14500      5.43000         0.000000      0.000000      0.000000
     14.93250      9.50250      6.78750        -0.000000     -0.000000     -0.000000
     16.29000      8.14500      8.14500         0.000000      0.000000      0.000000
     17.64750      9.50250      9.50250        -0.000000     -0.000000      0.000000
      8.14500     10.86000      2.71500         0.000000      0.000000      0.000000
      9.50250     12.21750      4.07250        -0.000000     -0.000000      0.000000
     10.86000     10.86000      5.43000         0.000000      0.000000     -0.000000
     12.21750     12.21750      6.78750        -0.000000     -0.000000     -0.000000
     13.57500     10.86000      8.14500         0.000000      0.000000     -0.000000
     14.93250     12.21750      9.50250        -0.000000     -0.000000     -0.000000
     16.29000     10.86000     10.86000         0.000000      0.000000      0.000000
     17.64750     12.21750     12.21750        -0.000000     -0.000000      0.000000
      8.14500     13.57500      5.43000         0.000000      0.000000      0.000000
      9.50250     14.93250      6.78750        -0.000000     -0.000000      0.000000
     10.86000     13.57500      8.14500         0.000000      0.000000      0.000000
     12.21750     14.93250      9.50250        -0.000000     -0.000000     -0.000000
     13.57500     13.57500     10.86000         0.000000      0.000000      0.000000
     14.93250     14.93250     12.21750        -0.000000     -0.000000     -0.000000
     16.29000     13.57500     13.57500         0.000000      0.000000      0.000000
     17.64750     14.93250     14.93250        -0.000000     -0.000000      0.000000
      8.14500     16.29000      8.14500         0.000000      0.000000      0.000000
      9.50250     17.64750      9.50250        -0.000000     -0.000000     -0.000000
     10.86000     16.29000     10.86000         0.000000      0.000000      0.000000
     12.21750     17.64750     12.21750        -0.000000     -0.000000     -0.000000
     13.57500     16.29000     13.57500         0.000000      0.000000      0.000000
     14.93250     17.64750     14.93250        -0.000000     -0.000000     -0.000000
     16.29000     16.29000     16.29000         0.000000      0.000000      0.000000
     17.64750     17.64750     17.64750        -0.000000     -0.000000      0.000000
 -----------------------------------------------------------------------------------
    total drift:                               -0.000000      0.000000     -0.000000


--------------------------------------------------------------------------------------------------------



  FREE ENERGIE OF THE ION-ELECTRON SYSTEM (eV)
  ---------------------------------------------------
  free  energy   TOTEN  =      -693.90285716 eV

  energy  without entropy=     -693.90285716  energy(sigma->0) =     -693.90285716
 


--------------------------------------------------------------------------------------------------------


    POTLOK:  cpu time      0.0619: real time      0.0622


--------------------------------------------------------------------------------------------------------


 writing wavefunctions
     LOOP+:  cpu time     17.6834: real time     17.8576
    4ORBIT:  cpu time      0.0000: real time      0.0000

 total amount of memory used by VASP MPI-rank0  1141801. kBytes
=======================================================================

   base                                    :      30000. kBytes
   nonlr-proj                              :      16950. kBytes
   fftplans                                :     141100. kBytes
   grid                                    :     218828. kBytes
   one-center                              :        393. kBytes
   wavefun                                 :     734530. kBytes
 
  
  
 General timing and accounting informations for this job:
 ========================================================
  
                  Total CPU time used (sec):       31.750
                            User time (sec):       25.739
                          System time (sec):        6.010
                         Elapsed time (sec):       42.527
  
                   Maximum memory used (kb):     3186356.
                   Average memory used (kb):          N/A
  
                          Minor page faults:       310589
                          Major page faults:          161
                 Voluntary context switches:        34900
