       N       E                     dE             d eps       ncg     rms          rms(c)
DAV:   1    -0.292167793071E+03   -0.29217E+03   -0.88296E-11   528   0.183E-05    0.491E-06
DAV:   2    -0.292167793071E+03   -0.12108E-10   -0.32719E-11   528   0.998E-06    0.541E-06
DAV:   3    -0.292167793071E+03   -0.61107E-10   -0.14882E-11   528   0.590E-06    0.211E-05
DAV:   4    -0.292167793071E+03    0.18781E-09   -0.68247E-12   528   0.345E-06    0.292E-06
DAV:   5    -0.292167793071E+03    0.33026E-10   -0.35754E-12   512   0.214E-06    0.673E-07
DAV:   6    -0.292167793071E+03   -0.54285E-10   -0.30246E-12   504   0.122E-06    0.921E-07
DAV:   7    -0.292167793071E+03    0.38540E-10   -0.26466E-12   480   0.809E-07    0.881E-07
DAV:   8    -0.292167793071E+03    0.82423E-11   -0.20132E-12   480   0.489E-07    0.114E-06
DAV:   9    -0.292167793071E+03    0.18190E-10   -0.52541E-13   464   0.326E-07    0.139E-06
DAV:  10    -0.292167793071E+03    0.14609E-10   -0.16784E-12   448   0.197E-07    0.823E-07
DAV:  11    -0.292167793071E+03    0.14722E-10   -0.15472E-12   448   0.149E-07    0.357E-07
DAV:  12    -0.292167793071E+03   -0.28422E-11    0.28720E-13   448   0.933E-08    0.169E-07
DAV:  13    -0.292167793071E+03   -0.11369E-10   -0.15182E-12   448   0.704E-08    0.577E-08
DAV:  14    -0.292167793071E+03    0.34106E-11    0.83197E-14   448   0.425E-08    0.230E-08
DAV:  15    -0.292167793071E+03    0.60822E-11   -0.25507E-12   448   0.305E-08    0.131E-08
DAV:  16    -0.292167793071E+03    0.18872E-10   -0.21812E-12   448   0.201E-08    0.807E-09
DAV:  17    -0.292167793071E+03    0.21430E-10   -0.13211E-12   448   0.154E-08    0.904E-10
DAV:  18    -0.292167793071E+03   -0.36039E-10    0.16959E-13   448   0.105E-08    0.932E-10
DAV:  19    -0.292167793071E+03    0.34731E-10    0.27506E-13   448   0.812E-09    0.501E-10
DAV:  20    -0.292167793071E+03   -0.42348E-10   -0.40516E-13   448   0.581E-09
   1 F= -.29216779E+03 E0= -.29216779E+03  d E =-.388259E-12
